*SPEF "ieee 1481-1999"
*DESIGN "chip_core"
*DATE "17:09:58 Friday August 07, 2026"
*VENDOR "The OpenROAD Project"
*PROGRAM "OpenROAD"
*VERSION "26Q1-1024-gdcf36133a"
*DESIGN_FLOW "NAME_SCOPE LOCAL" "PIN_CAP NONE"
*DIVIDER /
*DELIMITER :
*BUS_DELIMITER []
*T_UNIT 1 NS
*C_UNIT 1 PF
*R_UNIT 1 OHM
*L_UNIT 1 HENRY

*NAME_MAP
*3 net31
*4 net33
*5 net34
*6 net35
*7 net36
*8 net37
*9 net38
*10 net39
*11 net40
*12 net41
*13 net43
*14 net42
*15 net44
*16 net45
*17 net46
*18 net47
*19 net48
*20 net49
*21 net50
*22 net51
*23 net52
*24 net54
*25 net53
*26 net55
*27 net56
*28 net57
*29 net58
*30 net59
*31 net60
*32 net61
*33 net62
*34 net63
*35 net
*36 net64
*37 net65
*38 net66
*39 net67
*40 net68
*41 net69
*42 net32
*43 net70
*44 net72
*45 net73
*46 net74
*47 net75
*48 net76
*49 net77
*50 net78
*51 net79
*52 net80
*53 net81
*54 net71
*55 net83
*56 net84
*57 net85
*58 net86
*59 net87
*60 net88
*61 net89
*62 net90
*63 net91
*64 net92
*65 net82
*66 net94
*67 net95
*68 net96
*69 net97
*70 net98
*71 net99
*72 net100
*73 net101
*74 net102
*75 net103
*76 net93
*77 net104
*78 net105
*79 net106
*80 net107
*81 net108
*82 net109
*83 bidir_in[0]
*84 bidir_in[10]
*85 bidir_in[11]
*86 bidir_in[12]
*87 bidir_in[13]
*88 bidir_in[14]
*89 bidir_in[15]
*90 bidir_in[16]
*91 bidir_in[17]
*92 bidir_in[18]
*93 bidir_in[19]
*94 bidir_in[1]
*95 bidir_in[20]
*96 bidir_in[21]
*97 bidir_in[22]
*98 bidir_in[23]
*99 bidir_in[24]
*100 bidir_in[25]
*101 bidir_in[26]
*102 bidir_in[27]
*103 bidir_in[28]
*104 bidir_in[29]
*105 bidir_in[2]
*106 bidir_in[30]
*107 bidir_in[31]
*108 bidir_in[32]
*109 bidir_in[33]
*110 bidir_in[34]
*111 bidir_in[35]
*112 bidir_in[36]
*113 bidir_in[37]
*114 bidir_in[38]
*115 bidir_in[39]
*116 bidir_in[3]
*117 bidir_in[4]
*118 bidir_in[5]
*119 bidir_in[6]
*120 bidir_in[7]
*121 bidir_in[8]
*122 bidir_in[9]
*123 net110
*124 net112
*125 net113
*126 net114
*127 net115
*128 net116
*129 net117
*130 net287
*131 net288
*132 net299
*133 net304
*134 net111
*135 net305
*136 net306
*137 net307
*138 net308
*139 net309
*140 net310
*141 net289
*142 net290
*143 net291
*144 net292
*145 net118
*146 net293
*147 net294
*148 net295
*149 net296
*150 net297
*151 net298
*152 net300
*153 net301
*154 net302
*155 net303
*156 net119
*157 net120
*158 net121
*159 net122
*160 net123
*161 net124
*162 net125
*163 net126
*164 net128
*165 net129
*166 net130
*167 net131
*168 net132
*169 net133
*170 net311
*171 net134
*172 net135
*173 net136
*174 net127
*175 net137
*176 net139
*177 net140
*178 net141
*179 net142
*180 net143
*181 net144
*182 net145
*183 net146
*184 net147
*185 net138
*186 net148
*187 net150
*188 net151
*189 net152
*190 net153
*191 net154
*192 net155
*193 net156
*194 net157
*195 net158
*196 net149
*197 net159
*198 net160
*199 net161
*200 net162
*201 net163
*202 net164
*203 net165
*204 net167
*205 net168
*206 net169
*207 net170
*208 net171
*209 net172
*210 net173
*211 net174
*212 net175
*213 net176
*214 net166
*215 net178
*216 net179
*217 net180
*218 net181
*219 net182
*220 net183
*221 net184
*222 net185
*223 net186
*224 net187
*225 net177
*226 net189
*227 net190
*228 net191
*229 net192
*230 net193
*231 net194
*232 net195
*233 net196
*234 net197
*235 net198
*236 net188
*237 net199
*238 net200
*239 net201
*240 net202
*241 net203
*242 net204
*243 net205
*244 net207
*245 net208
*246 net209
*247 net210
*248 net211
*249 net212
*250 net213
*251 net214
*252 net215
*253 net216
*254 net206
*255 net218
*256 net219
*257 net220
*258 net221
*259 net222
*260 net223
*261 net224
*262 net225
*263 net226
*264 net227
*265 net217
*266 net229
*267 net230
*268 net231
*269 net232
*270 net233
*271 net234
*272 net235
*273 net236
*274 net237
*275 net238
*276 net228
*277 net239
*278 net240
*279 net241
*280 net242
*281 net243
*282 net244
*283 net245
*284 net247
*285 net248
*286 net249
*287 net250
*288 net251
*289 net252
*290 net253
*291 net254
*292 net255
*293 net256
*294 net246
*295 net258
*296 net259
*297 net260
*298 net261
*299 net262
*300 net263
*301 net264
*302 net265
*303 net266
*304 net267
*305 net257
*306 net269
*307 net270
*308 net271
*309 net272
*310 net273
*311 net274
*312 net275
*313 net276
*314 net277
*315 net278
*316 net268
*317 net279
*318 net280
*319 net281
*320 net282
*321 net283
*322 net284
*323 clk
*324 input_in
*325 net285
*326 net286
*327 rst_n
*328 clknet_0_clk
*329 clknet_2_0__leaf_clk
*330 clknet_2_1__leaf_clk
*331 clknet_2_2__leaf_clk
*332 clknet_2_3__leaf_clk
*333 net1
*334 net10
*335 net11
*336 net12
*337 net13
*338 net14
*339 net15
*340 net16
*341 net17
*342 net18
*343 net19
*344 net2
*345 net20
*346 net21
*347 net22
*348 net23
*349 net24
*350 net25
*351 net26
*352 net27
*353 net28
*354 net29
*355 net3
*356 net30
*357 net312
*358 net313
*359 net333
*360 net4
*361 net5
*362 net6
*363 net7
*364 net8
*365 net9
*366 u_grouper_soc_top\.gen_gpio_sync\[0\]\.u_gpio_sync/data_r\[0\]
*367 u_grouper_soc_top\.gen_gpio_sync\[0\]\.u_gpio_sync/data_r\[1\]
*368 u_grouper_soc_top\.gen_gpio_sync\[0\]\.u_gpio_sync/net319
*369 u_grouper_soc_top\.gen_gpio_sync\[10\]\.u_gpio_sync/data_r\[0\]
*370 u_grouper_soc_top\.gen_gpio_sync\[10\]\.u_gpio_sync/data_r\[1\]
*371 u_grouper_soc_top\.gen_gpio_sync\[10\]\.u_gpio_sync/net324
*372 u_grouper_soc_top\.gen_gpio_sync\[11\]\.u_gpio_sync/data_r\[0\]
*373 u_grouper_soc_top\.gen_gpio_sync\[11\]\.u_gpio_sync/data_r\[1\]
*374 u_grouper_soc_top\.gen_gpio_sync\[11\]\.u_gpio_sync/net330
*375 u_grouper_soc_top\.gen_gpio_sync\[12\]\.u_gpio_sync/data_r\[0\]
*376 u_grouper_soc_top\.gen_gpio_sync\[12\]\.u_gpio_sync/data_r\[1\]
*377 u_grouper_soc_top\.gen_gpio_sync\[12\]\.u_gpio_sync/net326
*378 u_grouper_soc_top\.gen_gpio_sync\[13\]\.u_gpio_sync/data_r\[0\]
*379 u_grouper_soc_top\.gen_gpio_sync\[13\]\.u_gpio_sync/data_r\[1\]
*380 u_grouper_soc_top\.gen_gpio_sync\[13\]\.u_gpio_sync/net323
*381 u_grouper_soc_top\.gen_gpio_sync\[14\]\.u_gpio_sync/data_r\[0\]
*382 u_grouper_soc_top\.gen_gpio_sync\[14\]\.u_gpio_sync/data_r\[1\]
*383 u_grouper_soc_top\.gen_gpio_sync\[14\]\.u_gpio_sync/net320
*384 u_grouper_soc_top\.gen_gpio_sync\[15\]\.u_gpio_sync/data_r\[0\]
*385 u_grouper_soc_top\.gen_gpio_sync\[15\]\.u_gpio_sync/data_r\[1\]
*386 u_grouper_soc_top\.gen_gpio_sync\[15\]\.u_gpio_sync/net329
*387 u_grouper_soc_top\.gen_gpio_sync\[1\]\.u_gpio_sync/data_r\[0\]
*388 u_grouper_soc_top\.gen_gpio_sync\[1\]\.u_gpio_sync/data_r\[1\]
*389 u_grouper_soc_top\.gen_gpio_sync\[1\]\.u_gpio_sync/net322
*390 u_grouper_soc_top\.gen_gpio_sync\[2\]\.u_gpio_sync/data_r\[0\]
*391 u_grouper_soc_top\.gen_gpio_sync\[2\]\.u_gpio_sync/data_r\[1\]
*392 u_grouper_soc_top\.gen_gpio_sync\[2\]\.u_gpio_sync/net316
*393 u_grouper_soc_top\.gen_gpio_sync\[3\]\.u_gpio_sync/data_r\[0\]
*394 u_grouper_soc_top\.gen_gpio_sync\[3\]\.u_gpio_sync/data_r\[1\]
*395 u_grouper_soc_top\.gen_gpio_sync\[3\]\.u_gpio_sync/net321
*396 u_grouper_soc_top\.gen_gpio_sync\[4\]\.u_gpio_sync/data_r\[0\]
*397 u_grouper_soc_top\.gen_gpio_sync\[4\]\.u_gpio_sync/data_r\[1\]
*398 u_grouper_soc_top\.gen_gpio_sync\[4\]\.u_gpio_sync/net328
*399 u_grouper_soc_top\.gen_gpio_sync\[5\]\.u_gpio_sync/data_r\[0\]
*400 u_grouper_soc_top\.gen_gpio_sync\[5\]\.u_gpio_sync/data_r\[1\]
*401 u_grouper_soc_top\.gen_gpio_sync\[5\]\.u_gpio_sync/net315
*402 u_grouper_soc_top\.gen_gpio_sync\[6\]\.u_gpio_sync/data_r\[0\]
*403 u_grouper_soc_top\.gen_gpio_sync\[6\]\.u_gpio_sync/data_r\[1\]
*404 u_grouper_soc_top\.gen_gpio_sync\[6\]\.u_gpio_sync/net331
*405 u_grouper_soc_top\.gen_gpio_sync\[7\]\.u_gpio_sync/data_r\[0\]
*406 u_grouper_soc_top\.gen_gpio_sync\[7\]\.u_gpio_sync/data_r\[1\]
*407 u_grouper_soc_top\.gen_gpio_sync\[7\]\.u_gpio_sync/net318
*408 u_grouper_soc_top\.gen_gpio_sync\[8\]\.u_gpio_sync/data_r\[0\]
*409 u_grouper_soc_top\.gen_gpio_sync\[8\]\.u_gpio_sync/data_r\[1\]
*410 u_grouper_soc_top\.gen_gpio_sync\[8\]\.u_gpio_sync/net327
*411 u_grouper_soc_top\.gen_gpio_sync\[9\]\.u_gpio_sync/data_r\[0\]
*412 u_grouper_soc_top\.gen_gpio_sync\[9\]\.u_gpio_sync/data_r\[1\]
*413 u_grouper_soc_top\.gen_gpio_sync\[9\]\.u_gpio_sync/net314
*414 u_grouper_soc_top\.gpio_in_sync\[0\]
*415 u_grouper_soc_top\.gpio_in_sync\[10\]
*416 u_grouper_soc_top\.gpio_in_sync\[11\]
*417 u_grouper_soc_top\.gpio_in_sync\[12\]
*418 u_grouper_soc_top\.gpio_in_sync\[13\]
*419 u_grouper_soc_top\.gpio_in_sync\[14\]
*420 u_grouper_soc_top\.gpio_in_sync\[15\]
*421 u_grouper_soc_top\.gpio_in_sync\[1\]
*422 u_grouper_soc_top\.gpio_in_sync\[2\]
*423 u_grouper_soc_top\.gpio_in_sync\[3\]
*424 u_grouper_soc_top\.gpio_in_sync\[4\]
*425 u_grouper_soc_top\.gpio_in_sync\[5\]
*426 u_grouper_soc_top\.gpio_in_sync\[6\]
*427 u_grouper_soc_top\.gpio_in_sync\[7\]
*428 u_grouper_soc_top\.gpio_in_sync\[8\]
*429 u_grouper_soc_top\.gpio_in_sync\[9\]
*430 u_grouper_soc_top\.rst_n_sync
*431 u_grouper_soc_top\.u_grouper_soc_dig_ss\.u_periph_ss\.u_uart\.u_uart\.u_uart_rx\.rx_sync
*432 u_grouper_soc_top\.u_grouper_soc_dig_ss\.u_periph_ss\.u_uart\.u_uart\.u_uart_rx\.u_sync/data_r\[0\]
*433 u_grouper_soc_top\.u_grouper_soc_dig_ss\.u_periph_ss\.u_uart\.u_uart\.u_uart_rx\.u_sync/data_r\[1\]
*434 u_grouper_soc_top\.u_grouper_soc_dig_ss\.u_periph_ss\.u_uart\.u_uart\.u_uart_rx\.u_sync/net317
*435 u_grouper_soc_top\.u_grouper_soc_dig_ss\.u_periph_ss\.u_uart\.u_uart\.u_uart_rx\.u_sync/net332
*436 u_grouper_soc_top\.u_rst_resync_sync/data_r\[0\]
*437 u_grouper_soc_top\.u_rst_resync_sync/data_r\[1\]
*438 u_grouper_soc_top\.u_rst_resync_sync/net325
*439 ANTENNA_clkbuf_0_clk_I
*440 ANTENNA_hold333_I
*441 ANTENNA_input10_I
*442 ANTENNA_input11_I
*443 ANTENNA_input12_I
*444 ANTENNA_input13_I
*445 ANTENNA_input14_I
*446 ANTENNA_input15_I
*447 ANTENNA_input16_I
*448 ANTENNA_input17_I
*449 ANTENNA_input1_I
*450 ANTENNA_input2_I
*451 ANTENNA_input3_I
*452 ANTENNA_input4_I
*453 ANTENNA_input5_I
*454 ANTENNA_input6_I
*455 ANTENNA_input7_I
*456 ANTENNA_input8_I
*457 ANTENNA_input9_I
*458 FILLER_0_1002
*459 FILLER_0_1008
*460 FILLER_0_1014
*461 FILLER_0_1018
*462 FILLER_0_1022
*463 FILLER_0_1027
*464 FILLER_0_1033
*465 FILLER_0_1039
*466 FILLER_0_104
*467 FILLER_0_1045
*468 FILLER_0_1051
*469 FILLER_0_1053
*470 FILLER_0_1056
*471 FILLER_0_1061
*472 FILLER_0_1067
*473 FILLER_0_1073
*474 FILLER_0_1079
*475 FILLER_0_1085
*476 FILLER_0_1087
*477 FILLER_0_1090
*478 FILLER_0_1095
*479 FILLER_0_1101
*480 FILLER_0_1107
*481 FILLER_0_1113
*482 FILLER_0_1119
*483 FILLER_0_1121
*484 FILLER_0_1124
*485 FILLER_0_1129
*486 FILLER_0_1145
*487 FILLER_0_1153
*488 FILLER_0_1155
*489 FILLER_0_1158
*490 FILLER_0_1192
*491 FILLER_0_1226
*492 FILLER_0_1260
*493 FILLER_0_1294
*494 FILLER_0_1328
*495 FILLER_0_1362
*496 FILLER_0_138
*497 FILLER_0_1396
*498 FILLER_0_1430
*499 FILLER_0_1464
*500 FILLER_0_1498
*501 FILLER_0_1532
*502 FILLER_0_1566
*503 FILLER_0_1600
*504 FILLER_0_1634
*505 FILLER_0_1668
*506 FILLER_0_1702
*507 FILLER_0_172
*508 FILLER_0_1736
*509 FILLER_0_1770
*510 FILLER_0_1804
*511 FILLER_0_1838
*512 FILLER_0_1872
*513 FILLER_0_1906
*514 FILLER_0_2
*515 FILLER_0_206
*516 FILLER_0_240
*517 FILLER_0_274
*518 FILLER_0_308
*519 FILLER_0_342
*520 FILLER_0_36
*521 FILLER_0_376
*522 FILLER_0_410
*523 FILLER_0_444
*524 FILLER_0_478
*525 FILLER_0_512
*526 FILLER_0_546
*527 FILLER_0_580
*528 FILLER_0_614
*529 FILLER_0_648
*530 FILLER_0_682
*531 FILLER_0_70
*532 FILLER_0_716
*533 FILLER_0_750
*534 FILLER_0_784
*535 FILLER_0_818
*536 FILLER_0_852
*537 FILLER_0_860
*538 FILLER_0_864
*539 FILLER_0_866
*540 FILLER_0_871
*541 FILLER_0_877
*542 FILLER_0_883
*543 FILLER_0_886
*544 FILLER_0_888
*545 FILLER_0_893
*546 FILLER_0_899
*547 FILLER_0_905
*548 FILLER_0_911
*549 FILLER_0_917
*550 FILLER_0_920
*551 FILLER_0_922
*552 FILLER_0_927
*553 FILLER_0_933
*554 FILLER_0_939
*555 FILLER_0_945
*556 FILLER_0_951
*557 FILLER_0_954
*558 FILLER_0_956
*559 FILLER_0_965
*560 FILLER_0_973
*561 FILLER_0_979
*562 FILLER_0_985
*563 FILLER_0_988
*564 FILLER_0_996
*565 FILLER_100_101
*566 FILLER_100_1011
*567 FILLER_100_1017
*568 FILLER_100_107
*569 FILLER_100_1081
*570 FILLER_100_1087
*571 FILLER_100_1151
*572 FILLER_100_1157
*573 FILLER_100_1221
*574 FILLER_100_1227
*575 FILLER_100_1291
*576 FILLER_100_1297
*577 FILLER_100_1361
*578 FILLER_100_1367
*579 FILLER_100_1431
*580 FILLER_100_1437
*581 FILLER_100_1501
*582 FILLER_100_1507
*583 FILLER_100_1571
*584 FILLER_100_1577
*585 FILLER_100_1641
*586 FILLER_100_1647
*587 FILLER_100_171
*588 FILLER_100_1711
*589 FILLER_100_1717
*590 FILLER_100_177
*591 FILLER_100_1781
*592 FILLER_100_1787
*593 FILLER_100_1851
*594 FILLER_100_1857
*595 FILLER_100_1921
*596 FILLER_100_1927
*597 FILLER_100_1935
*598 FILLER_100_1937
*599 FILLER_100_2
*600 FILLER_100_241
*601 FILLER_100_247
*602 FILLER_100_311
*603 FILLER_100_317
*604 FILLER_100_34
*605 FILLER_100_37
*606 FILLER_100_381
*607 FILLER_100_387
*608 FILLER_100_451
*609 FILLER_100_457
*610 FILLER_100_521
*611 FILLER_100_527
*612 FILLER_100_591
*613 FILLER_100_597
*614 FILLER_100_661
*615 FILLER_100_667
*616 FILLER_100_731
*617 FILLER_100_737
*618 FILLER_100_801
*619 FILLER_100_807
*620 FILLER_100_871
*621 FILLER_100_877
*622 FILLER_100_941
*623 FILLER_100_947
*624 FILLER_101_1046
*625 FILLER_101_1052
*626 FILLER_101_1116
*627 FILLER_101_1122
*628 FILLER_101_1186
*629 FILLER_101_1192
*630 FILLER_101_1256
*631 FILLER_101_1262
*632 FILLER_101_1326
*633 FILLER_101_1332
*634 FILLER_101_136
*635 FILLER_101_1396
*636 FILLER_101_1402
*637 FILLER_101_142
*638 FILLER_101_1466
*639 FILLER_101_1472
*640 FILLER_101_1536
*641 FILLER_101_1542
*642 FILLER_101_1606
*643 FILLER_101_1612
*644 FILLER_101_1676
*645 FILLER_101_1682
*646 FILLER_101_1746
*647 FILLER_101_1752
*648 FILLER_101_1816
*649 FILLER_101_1822
*650 FILLER_101_1886
*651 FILLER_101_1892
*652 FILLER_101_1924
*653 FILLER_101_1932
*654 FILLER_101_1936
*655 FILLER_101_2
*656 FILLER_101_206
*657 FILLER_101_212
*658 FILLER_101_276
*659 FILLER_101_282
*660 FILLER_101_346
*661 FILLER_101_352
*662 FILLER_101_416
*663 FILLER_101_422
*664 FILLER_101_486
*665 FILLER_101_492
*666 FILLER_101_556
*667 FILLER_101_562
*668 FILLER_101_626
*669 FILLER_101_632
*670 FILLER_101_66
*671 FILLER_101_696
*672 FILLER_101_702
*673 FILLER_101_72
*674 FILLER_101_766
*675 FILLER_101_772
*676 FILLER_101_836
*677 FILLER_101_842
*678 FILLER_101_906
*679 FILLER_101_912
*680 FILLER_101_976
*681 FILLER_101_982
*682 FILLER_102_101
*683 FILLER_102_1011
*684 FILLER_102_1017
*685 FILLER_102_107
*686 FILLER_102_1081
*687 FILLER_102_1087
*688 FILLER_102_1151
*689 FILLER_102_1157
*690 FILLER_102_1221
*691 FILLER_102_1227
*692 FILLER_102_1291
*693 FILLER_102_1297
*694 FILLER_102_1361
*695 FILLER_102_1367
*696 FILLER_102_1431
*697 FILLER_102_1437
*698 FILLER_102_1501
*699 FILLER_102_1507
*700 FILLER_102_1571
*701 FILLER_102_1577
*702 FILLER_102_1641
*703 FILLER_102_1647
*704 FILLER_102_171
*705 FILLER_102_1711
*706 FILLER_102_1717
*707 FILLER_102_177
*708 FILLER_102_1781
*709 FILLER_102_1787
*710 FILLER_102_1851
*711 FILLER_102_1857
*712 FILLER_102_1921
*713 FILLER_102_1927
*714 FILLER_102_1935
*715 FILLER_102_1937
*716 FILLER_102_2
*717 FILLER_102_241
*718 FILLER_102_247
*719 FILLER_102_311
*720 FILLER_102_317
*721 FILLER_102_34
*722 FILLER_102_37
*723 FILLER_102_381
*724 FILLER_102_387
*725 FILLER_102_451
*726 FILLER_102_457
*727 FILLER_102_521
*728 FILLER_102_527
*729 FILLER_102_591
*730 FILLER_102_597
*731 FILLER_102_661
*732 FILLER_102_667
*733 FILLER_102_731
*734 FILLER_102_737
*735 FILLER_102_801
*736 FILLER_102_807
*737 FILLER_102_871
*738 FILLER_102_877
*739 FILLER_102_941
*740 FILLER_102_947
*741 FILLER_103_1046
*742 FILLER_103_1052
*743 FILLER_103_1116
*744 FILLER_103_1122
*745 FILLER_103_1186
*746 FILLER_103_1192
*747 FILLER_103_1256
*748 FILLER_103_1262
*749 FILLER_103_1326
*750 FILLER_103_1332
*751 FILLER_103_136
*752 FILLER_103_1396
*753 FILLER_103_1402
*754 FILLER_103_142
*755 FILLER_103_1466
*756 FILLER_103_1472
*757 FILLER_103_1536
*758 FILLER_103_1542
*759 FILLER_103_1606
*760 FILLER_103_1612
*761 FILLER_103_1676
*762 FILLER_103_1682
*763 FILLER_103_1746
*764 FILLER_103_1752
*765 FILLER_103_1816
*766 FILLER_103_1822
*767 FILLER_103_1886
*768 FILLER_103_1892
*769 FILLER_103_1924
*770 FILLER_103_1932
*771 FILLER_103_1936
*772 FILLER_103_2
*773 FILLER_103_206
*774 FILLER_103_212
*775 FILLER_103_276
*776 FILLER_103_282
*777 FILLER_103_346
*778 FILLER_103_352
*779 FILLER_103_416
*780 FILLER_103_422
*781 FILLER_103_486
*782 FILLER_103_492
*783 FILLER_103_556
*784 FILLER_103_562
*785 FILLER_103_626
*786 FILLER_103_632
*787 FILLER_103_66
*788 FILLER_103_696
*789 FILLER_103_702
*790 FILLER_103_72
*791 FILLER_103_766
*792 FILLER_103_772
*793 FILLER_103_836
*794 FILLER_103_842
*795 FILLER_103_906
*796 FILLER_103_912
*797 FILLER_103_976
*798 FILLER_103_982
*799 FILLER_104_101
*800 FILLER_104_1011
*801 FILLER_104_1017
*802 FILLER_104_107
*803 FILLER_104_1081
*804 FILLER_104_1087
*805 FILLER_104_1151
*806 FILLER_104_1157
*807 FILLER_104_1221
*808 FILLER_104_1227
*809 FILLER_104_1291
*810 FILLER_104_1297
*811 FILLER_104_1361
*812 FILLER_104_1367
*813 FILLER_104_1431
*814 FILLER_104_1437
*815 FILLER_104_1501
*816 FILLER_104_1507
*817 FILLER_104_1571
*818 FILLER_104_1577
*819 FILLER_104_1641
*820 FILLER_104_1647
*821 FILLER_104_171
*822 FILLER_104_1711
*823 FILLER_104_1717
*824 FILLER_104_177
*825 FILLER_104_1781
*826 FILLER_104_1787
*827 FILLER_104_1851
*828 FILLER_104_1857
*829 FILLER_104_1921
*830 FILLER_104_1927
*831 FILLER_104_1935
*832 FILLER_104_1937
*833 FILLER_104_2
*834 FILLER_104_241
*835 FILLER_104_247
*836 FILLER_104_311
*837 FILLER_104_317
*838 FILLER_104_34
*839 FILLER_104_37
*840 FILLER_104_381
*841 FILLER_104_387
*842 FILLER_104_451
*843 FILLER_104_457
*844 FILLER_104_521
*845 FILLER_104_527
*846 FILLER_104_591
*847 FILLER_104_597
*848 FILLER_104_661
*849 FILLER_104_667
*850 FILLER_104_731
*851 FILLER_104_737
*852 FILLER_104_801
*853 FILLER_104_807
*854 FILLER_104_871
*855 FILLER_104_877
*856 FILLER_104_941
*857 FILLER_104_947
*858 FILLER_105_1046
*859 FILLER_105_1052
*860 FILLER_105_1116
*861 FILLER_105_1122
*862 FILLER_105_1186
*863 FILLER_105_1192
*864 FILLER_105_1256
*865 FILLER_105_1262
*866 FILLER_105_1326
*867 FILLER_105_1332
*868 FILLER_105_136
*869 FILLER_105_1396
*870 FILLER_105_1402
*871 FILLER_105_142
*872 FILLER_105_1466
*873 FILLER_105_1472
*874 FILLER_105_1536
*875 FILLER_105_1542
*876 FILLER_105_1606
*877 FILLER_105_1612
*878 FILLER_105_1676
*879 FILLER_105_1682
*880 FILLER_105_1746
*881 FILLER_105_1752
*882 FILLER_105_1816
*883 FILLER_105_1822
*884 FILLER_105_1886
*885 FILLER_105_1892
*886 FILLER_105_1924
*887 FILLER_105_1932
*888 FILLER_105_1936
*889 FILLER_105_2
*890 FILLER_105_206
*891 FILLER_105_212
*892 FILLER_105_276
*893 FILLER_105_282
*894 FILLER_105_346
*895 FILLER_105_352
*896 FILLER_105_416
*897 FILLER_105_422
*898 FILLER_105_486
*899 FILLER_105_492
*900 FILLER_105_556
*901 FILLER_105_562
*902 FILLER_105_626
*903 FILLER_105_632
*904 FILLER_105_66
*905 FILLER_105_696
*906 FILLER_105_702
*907 FILLER_105_72
*908 FILLER_105_766
*909 FILLER_105_772
*910 FILLER_105_836
*911 FILLER_105_842
*912 FILLER_105_906
*913 FILLER_105_912
*914 FILLER_105_976
*915 FILLER_105_982
*916 FILLER_106_101
*917 FILLER_106_1011
*918 FILLER_106_1017
*919 FILLER_106_107
*920 FILLER_106_1081
*921 FILLER_106_1087
*922 FILLER_106_1151
*923 FILLER_106_1157
*924 FILLER_106_1221
*925 FILLER_106_1227
*926 FILLER_106_1291
*927 FILLER_106_1297
*928 FILLER_106_1361
*929 FILLER_106_1367
*930 FILLER_106_1431
*931 FILLER_106_1437
*932 FILLER_106_1501
*933 FILLER_106_1507
*934 FILLER_106_1571
*935 FILLER_106_1577
*936 FILLER_106_1641
*937 FILLER_106_1647
*938 FILLER_106_171
*939 FILLER_106_1711
*940 FILLER_106_1717
*941 FILLER_106_177
*942 FILLER_106_1781
*943 FILLER_106_1787
*944 FILLER_106_1851
*945 FILLER_106_1857
*946 FILLER_106_1921
*947 FILLER_106_1927
*948 FILLER_106_1935
*949 FILLER_106_1937
*950 FILLER_106_2
*951 FILLER_106_241
*952 FILLER_106_247
*953 FILLER_106_311
*954 FILLER_106_317
*955 FILLER_106_34
*956 FILLER_106_37
*957 FILLER_106_381
*958 FILLER_106_387
*959 FILLER_106_451
*960 FILLER_106_457
*961 FILLER_106_521
*962 FILLER_106_527
*963 FILLER_106_591
*964 FILLER_106_597
*965 FILLER_106_661
*966 FILLER_106_667
*967 FILLER_106_731
*968 FILLER_106_737
*969 FILLER_106_801
*970 FILLER_106_807
*971 FILLER_106_871
*972 FILLER_106_877
*973 FILLER_106_941
*974 FILLER_106_947
*975 FILLER_107_1046
*976 FILLER_107_1052
*977 FILLER_107_1116
*978 FILLER_107_1122
*979 FILLER_107_1186
*980 FILLER_107_1192
*981 FILLER_107_1256
*982 FILLER_107_1262
*983 FILLER_107_1326
*984 FILLER_107_1332
*985 FILLER_107_136
*986 FILLER_107_1396
*987 FILLER_107_1402
*988 FILLER_107_142
*989 FILLER_107_1466
*990 FILLER_107_1472
*991 FILLER_107_1536
*992 FILLER_107_1542
*993 FILLER_107_1606
*994 FILLER_107_1612
*995 FILLER_107_1676
*996 FILLER_107_1682
*997 FILLER_107_1746
*998 FILLER_107_1752
*999 FILLER_107_1816
*1000 FILLER_107_1822
*1001 FILLER_107_1886
*1002 FILLER_107_1892
*1003 FILLER_107_1924
*1004 FILLER_107_1932
*1005 FILLER_107_1936
*1006 FILLER_107_2
*1007 FILLER_107_206
*1008 FILLER_107_212
*1009 FILLER_107_276
*1010 FILLER_107_282
*1011 FILLER_107_346
*1012 FILLER_107_352
*1013 FILLER_107_416
*1014 FILLER_107_422
*1015 FILLER_107_486
*1016 FILLER_107_492
*1017 FILLER_107_556
*1018 FILLER_107_562
*1019 FILLER_107_626
*1020 FILLER_107_632
*1021 FILLER_107_66
*1022 FILLER_107_696
*1023 FILLER_107_702
*1024 FILLER_107_72
*1025 FILLER_107_766
*1026 FILLER_107_772
*1027 FILLER_107_836
*1028 FILLER_107_842
*1029 FILLER_107_906
*1030 FILLER_107_912
*1031 FILLER_107_976
*1032 FILLER_107_982
*1033 FILLER_108_101
*1034 FILLER_108_1011
*1035 FILLER_108_1017
*1036 FILLER_108_107
*1037 FILLER_108_1081
*1038 FILLER_108_1087
*1039 FILLER_108_1151
*1040 FILLER_108_1157
*1041 FILLER_108_1221
*1042 FILLER_108_1227
*1043 FILLER_108_1291
*1044 FILLER_108_1297
*1045 FILLER_108_1361
*1046 FILLER_108_1367
*1047 FILLER_108_1431
*1048 FILLER_108_1437
*1049 FILLER_108_1501
*1050 FILLER_108_1507
*1051 FILLER_108_1571
*1052 FILLER_108_1577
*1053 FILLER_108_1641
*1054 FILLER_108_1647
*1055 FILLER_108_171
*1056 FILLER_108_1711
*1057 FILLER_108_1717
*1058 FILLER_108_177
*1059 FILLER_108_1781
*1060 FILLER_108_1787
*1061 FILLER_108_1851
*1062 FILLER_108_1857
*1063 FILLER_108_1921
*1064 FILLER_108_1927
*1065 FILLER_108_1935
*1066 FILLER_108_1937
*1067 FILLER_108_2
*1068 FILLER_108_241
*1069 FILLER_108_247
*1070 FILLER_108_311
*1071 FILLER_108_317
*1072 FILLER_108_34
*1073 FILLER_108_37
*1074 FILLER_108_381
*1075 FILLER_108_387
*1076 FILLER_108_451
*1077 FILLER_108_457
*1078 FILLER_108_521
*1079 FILLER_108_527
*1080 FILLER_108_591
*1081 FILLER_108_597
*1082 FILLER_108_661
*1083 FILLER_108_667
*1084 FILLER_108_731
*1085 FILLER_108_737
*1086 FILLER_108_801
*1087 FILLER_108_807
*1088 FILLER_108_871
*1089 FILLER_108_877
*1090 FILLER_108_941
*1091 FILLER_108_947
*1092 FILLER_109_1046
*1093 FILLER_109_1052
*1094 FILLER_109_1116
*1095 FILLER_109_1122
*1096 FILLER_109_1186
*1097 FILLER_109_1192
*1098 FILLER_109_1256
*1099 FILLER_109_1262
*1100 FILLER_109_1326
*1101 FILLER_109_1332
*1102 FILLER_109_136
*1103 FILLER_109_1396
*1104 FILLER_109_1402
*1105 FILLER_109_142
*1106 FILLER_109_1466
*1107 FILLER_109_1472
*1108 FILLER_109_1536
*1109 FILLER_109_1542
*1110 FILLER_109_1606
*1111 FILLER_109_1612
*1112 FILLER_109_1676
*1113 FILLER_109_1682
*1114 FILLER_109_1746
*1115 FILLER_109_1752
*1116 FILLER_109_1816
*1117 FILLER_109_1822
*1118 FILLER_109_1886
*1119 FILLER_109_1892
*1120 FILLER_109_1924
*1121 FILLER_109_1932
*1122 FILLER_109_1936
*1123 FILLER_109_2
*1124 FILLER_109_206
*1125 FILLER_109_212
*1126 FILLER_109_276
*1127 FILLER_109_282
*1128 FILLER_109_346
*1129 FILLER_109_352
*1130 FILLER_109_416
*1131 FILLER_109_422
*1132 FILLER_109_486
*1133 FILLER_109_492
*1134 FILLER_109_556
*1135 FILLER_109_562
*1136 FILLER_109_626
*1137 FILLER_109_632
*1138 FILLER_109_66
*1139 FILLER_109_696
*1140 FILLER_109_702
*1141 FILLER_109_72
*1142 FILLER_109_766
*1143 FILLER_109_772
*1144 FILLER_109_836
*1145 FILLER_109_842
*1146 FILLER_109_906
*1147 FILLER_109_912
*1148 FILLER_109_976
*1149 FILLER_109_982
*1150 FILLER_10_101
*1151 FILLER_10_1011
*1152 FILLER_10_1017
*1153 FILLER_10_107
*1154 FILLER_10_1081
*1155 FILLER_10_1087
*1156 FILLER_10_1151
*1157 FILLER_10_1157
*1158 FILLER_10_1221
*1159 FILLER_10_1227
*1160 FILLER_10_1291
*1161 FILLER_10_1297
*1162 FILLER_10_1361
*1163 FILLER_10_1367
*1164 FILLER_10_1431
*1165 FILLER_10_1437
*1166 FILLER_10_1501
*1167 FILLER_10_1507
*1168 FILLER_10_1571
*1169 FILLER_10_1577
*1170 FILLER_10_1641
*1171 FILLER_10_1647
*1172 FILLER_10_171
*1173 FILLER_10_1711
*1174 FILLER_10_1717
*1175 FILLER_10_177
*1176 FILLER_10_1781
*1177 FILLER_10_1787
*1178 FILLER_10_1851
*1179 FILLER_10_1857
*1180 FILLER_10_1921
*1181 FILLER_10_1927
*1182 FILLER_10_1935
*1183 FILLER_10_1937
*1184 FILLER_10_2
*1185 FILLER_10_241
*1186 FILLER_10_247
*1187 FILLER_10_311
*1188 FILLER_10_317
*1189 FILLER_10_34
*1190 FILLER_10_37
*1191 FILLER_10_381
*1192 FILLER_10_387
*1193 FILLER_10_451
*1194 FILLER_10_457
*1195 FILLER_10_521
*1196 FILLER_10_527
*1197 FILLER_10_591
*1198 FILLER_10_597
*1199 FILLER_10_661
*1200 FILLER_10_667
*1201 FILLER_10_731
*1202 FILLER_10_737
*1203 FILLER_10_801
*1204 FILLER_10_807
*1205 FILLER_10_871
*1206 FILLER_10_877
*1207 FILLER_10_941
*1208 FILLER_10_947
*1209 FILLER_110_1011
*1210 FILLER_110_1017
*1211 FILLER_110_102
*1212 FILLER_110_104
*1213 FILLER_110_107
*1214 FILLER_110_1081
*1215 FILLER_110_1087
*1216 FILLER_110_1151
*1217 FILLER_110_1157
*1218 FILLER_110_1221
*1219 FILLER_110_1227
*1220 FILLER_110_1291
*1221 FILLER_110_1297
*1222 FILLER_110_1361
*1223 FILLER_110_1367
*1224 FILLER_110_1431
*1225 FILLER_110_1437
*1226 FILLER_110_1501
*1227 FILLER_110_1507
*1228 FILLER_110_1571
*1229 FILLER_110_1577
*1230 FILLER_110_1641
*1231 FILLER_110_1647
*1232 FILLER_110_171
*1233 FILLER_110_1711
*1234 FILLER_110_1717
*1235 FILLER_110_177
*1236 FILLER_110_1781
*1237 FILLER_110_1787
*1238 FILLER_110_1851
*1239 FILLER_110_1857
*1240 FILLER_110_1921
*1241 FILLER_110_1927
*1242 FILLER_110_1935
*1243 FILLER_110_1937
*1244 FILLER_110_2
*1245 FILLER_110_241
*1246 FILLER_110_247
*1247 FILLER_110_311
*1248 FILLER_110_317
*1249 FILLER_110_34
*1250 FILLER_110_37
*1251 FILLER_110_381
*1252 FILLER_110_387
*1253 FILLER_110_451
*1254 FILLER_110_457
*1255 FILLER_110_521
*1256 FILLER_110_527
*1257 FILLER_110_591
*1258 FILLER_110_597
*1259 FILLER_110_66
*1260 FILLER_110_661
*1261 FILLER_110_667
*1262 FILLER_110_731
*1263 FILLER_110_737
*1264 FILLER_110_801
*1265 FILLER_110_807
*1266 FILLER_110_871
*1267 FILLER_110_877
*1268 FILLER_110_941
*1269 FILLER_110_947
*1270 FILLER_110_98
*1271 FILLER_111_1046
*1272 FILLER_111_1052
*1273 FILLER_111_1116
*1274 FILLER_111_1122
*1275 FILLER_111_1186
*1276 FILLER_111_1192
*1277 FILLER_111_1256
*1278 FILLER_111_1262
*1279 FILLER_111_1326
*1280 FILLER_111_1332
*1281 FILLER_111_136
*1282 FILLER_111_1396
*1283 FILLER_111_1402
*1284 FILLER_111_142
*1285 FILLER_111_1466
*1286 FILLER_111_1472
*1287 FILLER_111_1536
*1288 FILLER_111_1542
*1289 FILLER_111_1606
*1290 FILLER_111_1612
*1291 FILLER_111_1676
*1292 FILLER_111_1682
*1293 FILLER_111_1746
*1294 FILLER_111_1752
*1295 FILLER_111_1816
*1296 FILLER_111_1822
*1297 FILLER_111_1886
*1298 FILLER_111_1892
*1299 FILLER_111_1924
*1300 FILLER_111_1932
*1301 FILLER_111_1936
*1302 FILLER_111_2
*1303 FILLER_111_206
*1304 FILLER_111_212
*1305 FILLER_111_276
*1306 FILLER_111_282
*1307 FILLER_111_346
*1308 FILLER_111_352
*1309 FILLER_111_36
*1310 FILLER_111_416
*1311 FILLER_111_422
*1312 FILLER_111_486
*1313 FILLER_111_492
*1314 FILLER_111_556
*1315 FILLER_111_562
*1316 FILLER_111_626
*1317 FILLER_111_63
*1318 FILLER_111_632
*1319 FILLER_111_67
*1320 FILLER_111_69
*1321 FILLER_111_696
*1322 FILLER_111_702
*1323 FILLER_111_72
*1324 FILLER_111_766
*1325 FILLER_111_772
*1326 FILLER_111_836
*1327 FILLER_111_842
*1328 FILLER_111_906
*1329 FILLER_111_912
*1330 FILLER_111_976
*1331 FILLER_111_982
*1332 FILLER_112_1011
*1333 FILLER_112_1017
*1334 FILLER_112_103
*1335 FILLER_112_107
*1336 FILLER_112_1081
*1337 FILLER_112_1087
*1338 FILLER_112_1151
*1339 FILLER_112_1157
*1340 FILLER_112_1221
*1341 FILLER_112_1227
*1342 FILLER_112_1291
*1343 FILLER_112_1297
*1344 FILLER_112_1361
*1345 FILLER_112_1367
*1346 FILLER_112_1431
*1347 FILLER_112_1437
*1348 FILLER_112_1501
*1349 FILLER_112_1507
*1350 FILLER_112_1571
*1351 FILLER_112_1577
*1352 FILLER_112_1641
*1353 FILLER_112_1647
*1354 FILLER_112_171
*1355 FILLER_112_1711
*1356 FILLER_112_1717
*1357 FILLER_112_177
*1358 FILLER_112_1781
*1359 FILLER_112_1787
*1360 FILLER_112_1851
*1361 FILLER_112_1857
*1362 FILLER_112_1921
*1363 FILLER_112_1927
*1364 FILLER_112_1935
*1365 FILLER_112_1937
*1366 FILLER_112_2
*1367 FILLER_112_241
*1368 FILLER_112_247
*1369 FILLER_112_311
*1370 FILLER_112_317
*1371 FILLER_112_34
*1372 FILLER_112_37
*1373 FILLER_112_381
*1374 FILLER_112_387
*1375 FILLER_112_451
*1376 FILLER_112_457
*1377 FILLER_112_521
*1378 FILLER_112_527
*1379 FILLER_112_591
*1380 FILLER_112_597
*1381 FILLER_112_63
*1382 FILLER_112_661
*1383 FILLER_112_667
*1384 FILLER_112_731
*1385 FILLER_112_737
*1386 FILLER_112_801
*1387 FILLER_112_807
*1388 FILLER_112_871
*1389 FILLER_112_877
*1390 FILLER_112_941
*1391 FILLER_112_947
*1392 FILLER_112_95
*1393 FILLER_113_1046
*1394 FILLER_113_1052
*1395 FILLER_113_1116
*1396 FILLER_113_1122
*1397 FILLER_113_1186
*1398 FILLER_113_1192
*1399 FILLER_113_1256
*1400 FILLER_113_1262
*1401 FILLER_113_1326
*1402 FILLER_113_1332
*1403 FILLER_113_136
*1404 FILLER_113_1396
*1405 FILLER_113_1402
*1406 FILLER_113_142
*1407 FILLER_113_1466
*1408 FILLER_113_1472
*1409 FILLER_113_1536
*1410 FILLER_113_1542
*1411 FILLER_113_1606
*1412 FILLER_113_1612
*1413 FILLER_113_1676
*1414 FILLER_113_1682
*1415 FILLER_113_1746
*1416 FILLER_113_1752
*1417 FILLER_113_1816
*1418 FILLER_113_1822
*1419 FILLER_113_1886
*1420 FILLER_113_1892
*1421 FILLER_113_1924
*1422 FILLER_113_1932
*1423 FILLER_113_1936
*1424 FILLER_113_2
*1425 FILLER_113_206
*1426 FILLER_113_212
*1427 FILLER_113_276
*1428 FILLER_113_282
*1429 FILLER_113_34
*1430 FILLER_113_346
*1431 FILLER_113_352
*1432 FILLER_113_416
*1433 FILLER_113_422
*1434 FILLER_113_486
*1435 FILLER_113_492
*1436 FILLER_113_556
*1437 FILLER_113_562
*1438 FILLER_113_626
*1439 FILLER_113_63
*1440 FILLER_113_632
*1441 FILLER_113_67
*1442 FILLER_113_69
*1443 FILLER_113_696
*1444 FILLER_113_702
*1445 FILLER_113_72
*1446 FILLER_113_766
*1447 FILLER_113_772
*1448 FILLER_113_836
*1449 FILLER_113_842
*1450 FILLER_113_906
*1451 FILLER_113_912
*1452 FILLER_113_976
*1453 FILLER_113_982
*1454 FILLER_114_1011
*1455 FILLER_114_1017
*1456 FILLER_114_104
*1457 FILLER_114_107
*1458 FILLER_114_1081
*1459 FILLER_114_1087
*1460 FILLER_114_1151
*1461 FILLER_114_1157
*1462 FILLER_114_1221
*1463 FILLER_114_1227
*1464 FILLER_114_1291
*1465 FILLER_114_1297
*1466 FILLER_114_1361
*1467 FILLER_114_1367
*1468 FILLER_114_1431
*1469 FILLER_114_1437
*1470 FILLER_114_1501
*1471 FILLER_114_1507
*1472 FILLER_114_1571
*1473 FILLER_114_1577
*1474 FILLER_114_1641
*1475 FILLER_114_1647
*1476 FILLER_114_171
*1477 FILLER_114_1711
*1478 FILLER_114_1717
*1479 FILLER_114_177
*1480 FILLER_114_1781
*1481 FILLER_114_1787
*1482 FILLER_114_1851
*1483 FILLER_114_1857
*1484 FILLER_114_1921
*1485 FILLER_114_1927
*1486 FILLER_114_1935
*1487 FILLER_114_1937
*1488 FILLER_114_2
*1489 FILLER_114_241
*1490 FILLER_114_247
*1491 FILLER_114_311
*1492 FILLER_114_317
*1493 FILLER_114_34
*1494 FILLER_114_37
*1495 FILLER_114_381
*1496 FILLER_114_387
*1497 FILLER_114_451
*1498 FILLER_114_457
*1499 FILLER_114_521
*1500 FILLER_114_527
*1501 FILLER_114_591
*1502 FILLER_114_597
*1503 FILLER_114_661
*1504 FILLER_114_667
*1505 FILLER_114_72
*1506 FILLER_114_731
*1507 FILLER_114_737
*1508 FILLER_114_801
*1509 FILLER_114_807
*1510 FILLER_114_871
*1511 FILLER_114_877
*1512 FILLER_114_941
*1513 FILLER_114_947
*1514 FILLER_115_1046
*1515 FILLER_115_1052
*1516 FILLER_115_1116
*1517 FILLER_115_1122
*1518 FILLER_115_1186
*1519 FILLER_115_1192
*1520 FILLER_115_1256
*1521 FILLER_115_1262
*1522 FILLER_115_130
*1523 FILLER_115_1326
*1524 FILLER_115_1332
*1525 FILLER_115_138
*1526 FILLER_115_1396
*1527 FILLER_115_1402
*1528 FILLER_115_142
*1529 FILLER_115_1466
*1530 FILLER_115_1472
*1531 FILLER_115_1536
*1532 FILLER_115_1542
*1533 FILLER_115_1606
*1534 FILLER_115_1612
*1535 FILLER_115_1676
*1536 FILLER_115_1682
*1537 FILLER_115_1746
*1538 FILLER_115_1752
*1539 FILLER_115_1816
*1540 FILLER_115_1822
*1541 FILLER_115_1886
*1542 FILLER_115_1892
*1543 FILLER_115_1924
*1544 FILLER_115_1932
*1545 FILLER_115_1936
*1546 FILLER_115_2
*1547 FILLER_115_206
*1548 FILLER_115_212
*1549 FILLER_115_276
*1550 FILLER_115_282
*1551 FILLER_115_346
*1552 FILLER_115_352
*1553 FILLER_115_416
*1554 FILLER_115_422
*1555 FILLER_115_486
*1556 FILLER_115_492
*1557 FILLER_115_556
*1558 FILLER_115_562
*1559 FILLER_115_626
*1560 FILLER_115_632
*1561 FILLER_115_68
*1562 FILLER_115_696
*1563 FILLER_115_702
*1564 FILLER_115_72
*1565 FILLER_115_766
*1566 FILLER_115_772
*1567 FILLER_115_836
*1568 FILLER_115_842
*1569 FILLER_115_906
*1570 FILLER_115_912
*1571 FILLER_115_976
*1572 FILLER_115_98
*1573 FILLER_115_982
*1574 FILLER_116_101
*1575 FILLER_116_1011
*1576 FILLER_116_1017
*1577 FILLER_116_107
*1578 FILLER_116_1081
*1579 FILLER_116_1087
*1580 FILLER_116_1151
*1581 FILLER_116_1157
*1582 FILLER_116_1221
*1583 FILLER_116_1227
*1584 FILLER_116_1291
*1585 FILLER_116_1297
*1586 FILLER_116_1361
*1587 FILLER_116_1367
*1588 FILLER_116_1431
*1589 FILLER_116_1437
*1590 FILLER_116_1501
*1591 FILLER_116_1507
*1592 FILLER_116_1571
*1593 FILLER_116_1577
*1594 FILLER_116_1641
*1595 FILLER_116_1647
*1596 FILLER_116_171
*1597 FILLER_116_1711
*1598 FILLER_116_1717
*1599 FILLER_116_177
*1600 FILLER_116_1781
*1601 FILLER_116_1787
*1602 FILLER_116_1851
*1603 FILLER_116_1857
*1604 FILLER_116_1921
*1605 FILLER_116_1927
*1606 FILLER_116_1935
*1607 FILLER_116_1937
*1608 FILLER_116_2
*1609 FILLER_116_241
*1610 FILLER_116_247
*1611 FILLER_116_311
*1612 FILLER_116_317
*1613 FILLER_116_34
*1614 FILLER_116_37
*1615 FILLER_116_381
*1616 FILLER_116_387
*1617 FILLER_116_451
*1618 FILLER_116_457
*1619 FILLER_116_521
*1620 FILLER_116_527
*1621 FILLER_116_591
*1622 FILLER_116_597
*1623 FILLER_116_661
*1624 FILLER_116_667
*1625 FILLER_116_731
*1626 FILLER_116_737
*1627 FILLER_116_801
*1628 FILLER_116_807
*1629 FILLER_116_87
*1630 FILLER_116_871
*1631 FILLER_116_877
*1632 FILLER_116_93
*1633 FILLER_116_941
*1634 FILLER_116_947
*1635 FILLER_117_1046
*1636 FILLER_117_1052
*1637 FILLER_117_1116
*1638 FILLER_117_1122
*1639 FILLER_117_1186
*1640 FILLER_117_1192
*1641 FILLER_117_1256
*1642 FILLER_117_1262
*1643 FILLER_117_131
*1644 FILLER_117_1326
*1645 FILLER_117_1332
*1646 FILLER_117_139
*1647 FILLER_117_1396
*1648 FILLER_117_1402
*1649 FILLER_117_142
*1650 FILLER_117_1466
*1651 FILLER_117_1472
*1652 FILLER_117_1536
*1653 FILLER_117_1542
*1654 FILLER_117_1606
*1655 FILLER_117_1612
*1656 FILLER_117_1676
*1657 FILLER_117_1682
*1658 FILLER_117_1746
*1659 FILLER_117_1752
*1660 FILLER_117_1816
*1661 FILLER_117_1822
*1662 FILLER_117_1886
*1663 FILLER_117_1892
*1664 FILLER_117_1924
*1665 FILLER_117_1932
*1666 FILLER_117_1936
*1667 FILLER_117_2
*1668 FILLER_117_206
*1669 FILLER_117_212
*1670 FILLER_117_276
*1671 FILLER_117_282
*1672 FILLER_117_346
*1673 FILLER_117_352
*1674 FILLER_117_416
*1675 FILLER_117_422
*1676 FILLER_117_486
*1677 FILLER_117_492
*1678 FILLER_117_556
*1679 FILLER_117_562
*1680 FILLER_117_626
*1681 FILLER_117_632
*1682 FILLER_117_68
*1683 FILLER_117_696
*1684 FILLER_117_702
*1685 FILLER_117_72
*1686 FILLER_117_766
*1687 FILLER_117_772
*1688 FILLER_117_836
*1689 FILLER_117_842
*1690 FILLER_117_906
*1691 FILLER_117_912
*1692 FILLER_117_976
*1693 FILLER_117_982
*1694 FILLER_117_99
*1695 FILLER_118_1011
*1696 FILLER_118_1017
*1697 FILLER_118_104
*1698 FILLER_118_107
*1699 FILLER_118_1081
*1700 FILLER_118_1087
*1701 FILLER_118_111
*1702 FILLER_118_1151
*1703 FILLER_118_1157
*1704 FILLER_118_118
*1705 FILLER_118_1221
*1706 FILLER_118_1227
*1707 FILLER_118_1291
*1708 FILLER_118_1297
*1709 FILLER_118_1361
*1710 FILLER_118_1367
*1711 FILLER_118_1431
*1712 FILLER_118_1437
*1713 FILLER_118_150
*1714 FILLER_118_1501
*1715 FILLER_118_1507
*1716 FILLER_118_1571
*1717 FILLER_118_1577
*1718 FILLER_118_1641
*1719 FILLER_118_1647
*1720 FILLER_118_166
*1721 FILLER_118_1711
*1722 FILLER_118_1717
*1723 FILLER_118_174
*1724 FILLER_118_177
*1725 FILLER_118_1781
*1726 FILLER_118_1787
*1727 FILLER_118_1851
*1728 FILLER_118_1857
*1729 FILLER_118_1921
*1730 FILLER_118_1927
*1731 FILLER_118_1935
*1732 FILLER_118_1937
*1733 FILLER_118_2
*1734 FILLER_118_241
*1735 FILLER_118_247
*1736 FILLER_118_311
*1737 FILLER_118_317
*1738 FILLER_118_34
*1739 FILLER_118_37
*1740 FILLER_118_381
*1741 FILLER_118_387
*1742 FILLER_118_451
*1743 FILLER_118_457
*1744 FILLER_118_521
*1745 FILLER_118_527
*1746 FILLER_118_591
*1747 FILLER_118_597
*1748 FILLER_118_661
*1749 FILLER_118_667
*1750 FILLER_118_72
*1751 FILLER_118_731
*1752 FILLER_118_737
*1753 FILLER_118_76
*1754 FILLER_118_78
*1755 FILLER_118_801
*1756 FILLER_118_807
*1757 FILLER_118_871
*1758 FILLER_118_877
*1759 FILLER_118_941
*1760 FILLER_118_947
*1761 FILLER_119_1046
*1762 FILLER_119_1052
*1763 FILLER_119_1116
*1764 FILLER_119_1122
*1765 FILLER_119_117
*1766 FILLER_119_1186
*1767 FILLER_119_1192
*1768 FILLER_119_1256
*1769 FILLER_119_1262
*1770 FILLER_119_1326
*1771 FILLER_119_133
*1772 FILLER_119_1332
*1773 FILLER_119_137
*1774 FILLER_119_139
*1775 FILLER_119_1396
*1776 FILLER_119_1402
*1777 FILLER_119_142
*1778 FILLER_119_1466
*1779 FILLER_119_1472
*1780 FILLER_119_1536
*1781 FILLER_119_1542
*1782 FILLER_119_1606
*1783 FILLER_119_1612
*1784 FILLER_119_1676
*1785 FILLER_119_1682
*1786 FILLER_119_1746
*1787 FILLER_119_1752
*1788 FILLER_119_1816
*1789 FILLER_119_1822
*1790 FILLER_119_1886
*1791 FILLER_119_1892
*1792 FILLER_119_1924
*1793 FILLER_119_1932
*1794 FILLER_119_1936
*1795 FILLER_119_2
*1796 FILLER_119_206
*1797 FILLER_119_212
*1798 FILLER_119_276
*1799 FILLER_119_282
*1800 FILLER_119_34
*1801 FILLER_119_346
*1802 FILLER_119_352
*1803 FILLER_119_416
*1804 FILLER_119_422
*1805 FILLER_119_486
*1806 FILLER_119_492
*1807 FILLER_119_556
*1808 FILLER_119_562
*1809 FILLER_119_626
*1810 FILLER_119_632
*1811 FILLER_119_69
*1812 FILLER_119_696
*1813 FILLER_119_702
*1814 FILLER_119_72
*1815 FILLER_119_766
*1816 FILLER_119_772
*1817 FILLER_119_79
*1818 FILLER_119_836
*1819 FILLER_119_842
*1820 FILLER_119_906
*1821 FILLER_119_912
*1822 FILLER_119_976
*1823 FILLER_119_982
*1824 FILLER_11_1046
*1825 FILLER_11_1052
*1826 FILLER_11_1116
*1827 FILLER_11_1122
*1828 FILLER_11_1186
*1829 FILLER_11_1192
*1830 FILLER_11_1256
*1831 FILLER_11_1262
*1832 FILLER_11_1326
*1833 FILLER_11_1332
*1834 FILLER_11_136
*1835 FILLER_11_1396
*1836 FILLER_11_1402
*1837 FILLER_11_142
*1838 FILLER_11_1466
*1839 FILLER_11_1472
*1840 FILLER_11_1536
*1841 FILLER_11_1542
*1842 FILLER_11_1606
*1843 FILLER_11_1612
*1844 FILLER_11_1676
*1845 FILLER_11_1682
*1846 FILLER_11_1746
*1847 FILLER_11_1752
*1848 FILLER_11_1816
*1849 FILLER_11_1822
*1850 FILLER_11_1886
*1851 FILLER_11_1892
*1852 FILLER_11_1924
*1853 FILLER_11_1932
*1854 FILLER_11_1936
*1855 FILLER_11_2
*1856 FILLER_11_206
*1857 FILLER_11_212
*1858 FILLER_11_276
*1859 FILLER_11_282
*1860 FILLER_11_346
*1861 FILLER_11_352
*1862 FILLER_11_416
*1863 FILLER_11_422
*1864 FILLER_11_486
*1865 FILLER_11_492
*1866 FILLER_11_556
*1867 FILLER_11_562
*1868 FILLER_11_626
*1869 FILLER_11_632
*1870 FILLER_11_66
*1871 FILLER_11_696
*1872 FILLER_11_702
*1873 FILLER_11_72
*1874 FILLER_11_766
*1875 FILLER_11_772
*1876 FILLER_11_836
*1877 FILLER_11_842
*1878 FILLER_11_906
*1879 FILLER_11_912
*1880 FILLER_11_976
*1881 FILLER_11_982
*1882 FILLER_120_1011
*1883 FILLER_120_1017
*1884 FILLER_120_103
*1885 FILLER_120_107
*1886 FILLER_120_1081
*1887 FILLER_120_1087
*1888 FILLER_120_1151
*1889 FILLER_120_1157
*1890 FILLER_120_1221
*1891 FILLER_120_1227
*1892 FILLER_120_1291
*1893 FILLER_120_1297
*1894 FILLER_120_133
*1895 FILLER_120_1361
*1896 FILLER_120_1367
*1897 FILLER_120_1431
*1898 FILLER_120_1437
*1899 FILLER_120_1501
*1900 FILLER_120_1507
*1901 FILLER_120_1571
*1902 FILLER_120_1577
*1903 FILLER_120_1641
*1904 FILLER_120_1647
*1905 FILLER_120_165
*1906 FILLER_120_1711
*1907 FILLER_120_1717
*1908 FILLER_120_173
*1909 FILLER_120_177
*1910 FILLER_120_1781
*1911 FILLER_120_1787
*1912 FILLER_120_1851
*1913 FILLER_120_1857
*1914 FILLER_120_1921
*1915 FILLER_120_1927
*1916 FILLER_120_1935
*1917 FILLER_120_1937
*1918 FILLER_120_2
*1919 FILLER_120_241
*1920 FILLER_120_247
*1921 FILLER_120_311
*1922 FILLER_120_317
*1923 FILLER_120_34
*1924 FILLER_120_37
*1925 FILLER_120_381
*1926 FILLER_120_387
*1927 FILLER_120_451
*1928 FILLER_120_457
*1929 FILLER_120_521
*1930 FILLER_120_527
*1931 FILLER_120_591
*1932 FILLER_120_597
*1933 FILLER_120_661
*1934 FILLER_120_667
*1935 FILLER_120_72
*1936 FILLER_120_731
*1937 FILLER_120_737
*1938 FILLER_120_801
*1939 FILLER_120_807
*1940 FILLER_120_871
*1941 FILLER_120_877
*1942 FILLER_120_941
*1943 FILLER_120_947
*1944 FILLER_120_99
*1945 FILLER_121_1046
*1946 FILLER_121_1052
*1947 FILLER_121_1116
*1948 FILLER_121_1122
*1949 FILLER_121_1186
*1950 FILLER_121_1192
*1951 FILLER_121_1256
*1952 FILLER_121_126
*1953 FILLER_121_1262
*1954 FILLER_121_1326
*1955 FILLER_121_1332
*1956 FILLER_121_134
*1957 FILLER_121_138
*1958 FILLER_121_1396
*1959 FILLER_121_1402
*1960 FILLER_121_142
*1961 FILLER_121_1466
*1962 FILLER_121_1472
*1963 FILLER_121_1536
*1964 FILLER_121_1542
*1965 FILLER_121_1606
*1966 FILLER_121_1612
*1967 FILLER_121_1676
*1968 FILLER_121_1682
*1969 FILLER_121_1746
*1970 FILLER_121_1752
*1971 FILLER_121_1816
*1972 FILLER_121_1822
*1973 FILLER_121_1886
*1974 FILLER_121_1892
*1975 FILLER_121_1924
*1976 FILLER_121_1932
*1977 FILLER_121_1936
*1978 FILLER_121_2
*1979 FILLER_121_206
*1980 FILLER_121_212
*1981 FILLER_121_276
*1982 FILLER_121_282
*1983 FILLER_121_34
*1984 FILLER_121_346
*1985 FILLER_121_352
*1986 FILLER_121_416
*1987 FILLER_121_422
*1988 FILLER_121_486
*1989 FILLER_121_492
*1990 FILLER_121_556
*1991 FILLER_121_562
*1992 FILLER_121_626
*1993 FILLER_121_632
*1994 FILLER_121_69
*1995 FILLER_121_696
*1996 FILLER_121_702
*1997 FILLER_121_72
*1998 FILLER_121_766
*1999 FILLER_121_772
*2000 FILLER_121_79
*2001 FILLER_121_836
*2002 FILLER_121_842
*2003 FILLER_121_87
*2004 FILLER_121_906
*2005 FILLER_121_91
*2006 FILLER_121_912
*2007 FILLER_121_976
*2008 FILLER_121_982
*2009 FILLER_122_1011
*2010 FILLER_122_1017
*2011 FILLER_122_104
*2012 FILLER_122_107
*2013 FILLER_122_1081
*2014 FILLER_122_1087
*2015 FILLER_122_1151
*2016 FILLER_122_1157
*2017 FILLER_122_1221
*2018 FILLER_122_1227
*2019 FILLER_122_1291
*2020 FILLER_122_1297
*2021 FILLER_122_136
*2022 FILLER_122_1361
*2023 FILLER_122_1367
*2024 FILLER_122_1431
*2025 FILLER_122_1437
*2026 FILLER_122_1501
*2027 FILLER_122_1507
*2028 FILLER_122_1571
*2029 FILLER_122_1577
*2030 FILLER_122_1641
*2031 FILLER_122_1647
*2032 FILLER_122_168
*2033 FILLER_122_1711
*2034 FILLER_122_1717
*2035 FILLER_122_172
*2036 FILLER_122_174
*2037 FILLER_122_177
*2038 FILLER_122_1781
*2039 FILLER_122_1787
*2040 FILLER_122_1851
*2041 FILLER_122_1857
*2042 FILLER_122_1921
*2043 FILLER_122_1927
*2044 FILLER_122_1935
*2045 FILLER_122_1937
*2046 FILLER_122_2
*2047 FILLER_122_241
*2048 FILLER_122_247
*2049 FILLER_122_311
*2050 FILLER_122_317
*2051 FILLER_122_34
*2052 FILLER_122_37
*2053 FILLER_122_381
*2054 FILLER_122_387
*2055 FILLER_122_451
*2056 FILLER_122_457
*2057 FILLER_122_521
*2058 FILLER_122_527
*2059 FILLER_122_591
*2060 FILLER_122_597
*2061 FILLER_122_64
*2062 FILLER_122_661
*2063 FILLER_122_667
*2064 FILLER_122_68
*2065 FILLER_122_731
*2066 FILLER_122_737
*2067 FILLER_122_801
*2068 FILLER_122_807
*2069 FILLER_122_871
*2070 FILLER_122_877
*2071 FILLER_122_941
*2072 FILLER_122_947
*2073 FILLER_123_1046
*2074 FILLER_123_1052
*2075 FILLER_123_107
*2076 FILLER_123_1116
*2077 FILLER_123_1122
*2078 FILLER_123_1186
*2079 FILLER_123_1192
*2080 FILLER_123_1256
*2081 FILLER_123_1262
*2082 FILLER_123_1326
*2083 FILLER_123_1332
*2084 FILLER_123_134
*2085 FILLER_123_138
*2086 FILLER_123_1396
*2087 FILLER_123_1402
*2088 FILLER_123_142
*2089 FILLER_123_1466
*2090 FILLER_123_1472
*2091 FILLER_123_1536
*2092 FILLER_123_1542
*2093 FILLER_123_1606
*2094 FILLER_123_1612
*2095 FILLER_123_1676
*2096 FILLER_123_1682
*2097 FILLER_123_1746
*2098 FILLER_123_1752
*2099 FILLER_123_1816
*2100 FILLER_123_1822
*2101 FILLER_123_1886
*2102 FILLER_123_1892
*2103 FILLER_123_1924
*2104 FILLER_123_1932
*2105 FILLER_123_1936
*2106 FILLER_123_2
*2107 FILLER_123_206
*2108 FILLER_123_212
*2109 FILLER_123_276
*2110 FILLER_123_282
*2111 FILLER_123_34
*2112 FILLER_123_346
*2113 FILLER_123_352
*2114 FILLER_123_416
*2115 FILLER_123_422
*2116 FILLER_123_486
*2117 FILLER_123_492
*2118 FILLER_123_556
*2119 FILLER_123_562
*2120 FILLER_123_626
*2121 FILLER_123_632
*2122 FILLER_123_69
*2123 FILLER_123_696
*2124 FILLER_123_702
*2125 FILLER_123_72
*2126 FILLER_123_766
*2127 FILLER_123_772
*2128 FILLER_123_836
*2129 FILLER_123_842
*2130 FILLER_123_906
*2131 FILLER_123_912
*2132 FILLER_123_976
*2133 FILLER_123_982
*2134 FILLER_124_10
*2135 FILLER_124_1011
*2136 FILLER_124_1017
*2137 FILLER_124_104
*2138 FILLER_124_107
*2139 FILLER_124_1081
*2140 FILLER_124_1087
*2141 FILLER_124_112
*2142 FILLER_124_1151
*2143 FILLER_124_1157
*2144 FILLER_124_116
*2145 FILLER_124_1221
*2146 FILLER_124_1227
*2147 FILLER_124_123
*2148 FILLER_124_1291
*2149 FILLER_124_1297
*2150 FILLER_124_1361
*2151 FILLER_124_1367
*2152 FILLER_124_14
*2153 FILLER_124_1431
*2154 FILLER_124_1437
*2155 FILLER_124_1501
*2156 FILLER_124_1507
*2157 FILLER_124_155
*2158 FILLER_124_1571
*2159 FILLER_124_1577
*2160 FILLER_124_1641
*2161 FILLER_124_1647
*2162 FILLER_124_171
*2163 FILLER_124_1711
*2164 FILLER_124_1717
*2165 FILLER_124_177
*2166 FILLER_124_1781
*2167 FILLER_124_1787
*2168 FILLER_124_1851
*2169 FILLER_124_1857
*2170 FILLER_124_1921
*2171 FILLER_124_1927
*2172 FILLER_124_1931
*2173 FILLER_124_1933
*2174 FILLER_124_2
*2175 FILLER_124_24
*2176 FILLER_124_241
*2177 FILLER_124_247
*2178 FILLER_124_311
*2179 FILLER_124_317
*2180 FILLER_124_32
*2181 FILLER_124_34
*2182 FILLER_124_37
*2183 FILLER_124_381
*2184 FILLER_124_387
*2185 FILLER_124_451
*2186 FILLER_124_457
*2187 FILLER_124_521
*2188 FILLER_124_527
*2189 FILLER_124_591
*2190 FILLER_124_597
*2191 FILLER_124_64
*2192 FILLER_124_661
*2193 FILLER_124_667
*2194 FILLER_124_68
*2195 FILLER_124_731
*2196 FILLER_124_737
*2197 FILLER_124_801
*2198 FILLER_124_807
*2199 FILLER_124_871
*2200 FILLER_124_877
*2201 FILLER_124_941
*2202 FILLER_124_947
*2203 FILLER_125_1046
*2204 FILLER_125_1052
*2205 FILLER_125_1116
*2206 FILLER_125_1122
*2207 FILLER_125_1186
*2208 FILLER_125_1192
*2209 FILLER_125_1256
*2210 FILLER_125_1262
*2211 FILLER_125_131
*2212 FILLER_125_1326
*2213 FILLER_125_1332
*2214 FILLER_125_139
*2215 FILLER_125_1396
*2216 FILLER_125_1402
*2217 FILLER_125_142
*2218 FILLER_125_1466
*2219 FILLER_125_1472
*2220 FILLER_125_1536
*2221 FILLER_125_1542
*2222 FILLER_125_1606
*2223 FILLER_125_1612
*2224 FILLER_125_1676
*2225 FILLER_125_1682
*2226 FILLER_125_1746
*2227 FILLER_125_1752
*2228 FILLER_125_1816
*2229 FILLER_125_1822
*2230 FILLER_125_1886
*2231 FILLER_125_1892
*2232 FILLER_125_1924
*2233 FILLER_125_1932
*2234 FILLER_125_2
*2235 FILLER_125_206
*2236 FILLER_125_212
*2237 FILLER_125_276
*2238 FILLER_125_282
*2239 FILLER_125_34
*2240 FILLER_125_346
*2241 FILLER_125_352
*2242 FILLER_125_416
*2243 FILLER_125_422
*2244 FILLER_125_486
*2245 FILLER_125_492
*2246 FILLER_125_556
*2247 FILLER_125_562
*2248 FILLER_125_626
*2249 FILLER_125_632
*2250 FILLER_125_69
*2251 FILLER_125_696
*2252 FILLER_125_702
*2253 FILLER_125_72
*2254 FILLER_125_75
*2255 FILLER_125_766
*2256 FILLER_125_772
*2257 FILLER_125_79
*2258 FILLER_125_836
*2259 FILLER_125_842
*2260 FILLER_125_906
*2261 FILLER_125_912
*2262 FILLER_125_976
*2263 FILLER_125_982
*2264 FILLER_126_1011
*2265 FILLER_126_1017
*2266 FILLER_126_104
*2267 FILLER_126_107
*2268 FILLER_126_1081
*2269 FILLER_126_1087
*2270 FILLER_126_1151
*2271 FILLER_126_1157
*2272 FILLER_126_1221
*2273 FILLER_126_1227
*2274 FILLER_126_1291
*2275 FILLER_126_1297
*2276 FILLER_126_133
*2277 FILLER_126_1361
*2278 FILLER_126_1367
*2279 FILLER_126_137
*2280 FILLER_126_1431
*2281 FILLER_126_1437
*2282 FILLER_126_1501
*2283 FILLER_126_1507
*2284 FILLER_126_1571
*2285 FILLER_126_1577
*2286 FILLER_126_1641
*2287 FILLER_126_1647
*2288 FILLER_126_169
*2289 FILLER_126_1711
*2290 FILLER_126_1717
*2291 FILLER_126_173
*2292 FILLER_126_177
*2293 FILLER_126_1781
*2294 FILLER_126_1787
*2295 FILLER_126_1851
*2296 FILLER_126_1857
*2297 FILLER_126_1889
*2298 FILLER_126_1905
*2299 FILLER_126_1913
*2300 FILLER_126_1917
*2301 FILLER_126_1919
*2302 FILLER_126_1924
*2303 FILLER_126_1927
*2304 FILLER_126_1932
*2305 FILLER_126_2
*2306 FILLER_126_241
*2307 FILLER_126_247
*2308 FILLER_126_311
*2309 FILLER_126_317
*2310 FILLER_126_34
*2311 FILLER_126_37
*2312 FILLER_126_381
*2313 FILLER_126_387
*2314 FILLER_126_45
*2315 FILLER_126_451
*2316 FILLER_126_457
*2317 FILLER_126_521
*2318 FILLER_126_527
*2319 FILLER_126_591
*2320 FILLER_126_597
*2321 FILLER_126_661
*2322 FILLER_126_667
*2323 FILLER_126_731
*2324 FILLER_126_737
*2325 FILLER_126_801
*2326 FILLER_126_807
*2327 FILLER_126_871
*2328 FILLER_126_877
*2329 FILLER_126_941
*2330 FILLER_126_947
*2331 FILLER_126_96
*2332 FILLER_127_1046
*2333 FILLER_127_1052
*2334 FILLER_127_107
*2335 FILLER_127_1116
*2336 FILLER_127_1122
*2337 FILLER_127_1186
*2338 FILLER_127_1192
*2339 FILLER_127_1256
*2340 FILLER_127_1262
*2341 FILLER_127_1326
*2342 FILLER_127_1332
*2343 FILLER_127_134
*2344 FILLER_127_138
*2345 FILLER_127_1396
*2346 FILLER_127_1402
*2347 FILLER_127_142
*2348 FILLER_127_1466
*2349 FILLER_127_1472
*2350 FILLER_127_1536
*2351 FILLER_127_1542
*2352 FILLER_127_1606
*2353 FILLER_127_1612
*2354 FILLER_127_1676
*2355 FILLER_127_1682
*2356 FILLER_127_1746
*2357 FILLER_127_1752
*2358 FILLER_127_1816
*2359 FILLER_127_1822
*2360 FILLER_127_1886
*2361 FILLER_127_1892
*2362 FILLER_127_1908
*2363 FILLER_127_1920
*2364 FILLER_127_1926
*2365 FILLER_127_1932
*2366 FILLER_127_2
*2367 FILLER_127_206
*2368 FILLER_127_212
*2369 FILLER_127_276
*2370 FILLER_127_282
*2371 FILLER_127_346
*2372 FILLER_127_352
*2373 FILLER_127_416
*2374 FILLER_127_422
*2375 FILLER_127_486
*2376 FILLER_127_492
*2377 FILLER_127_556
*2378 FILLER_127_562
*2379 FILLER_127_626
*2380 FILLER_127_632
*2381 FILLER_127_68
*2382 FILLER_127_696
*2383 FILLER_127_702
*2384 FILLER_127_72
*2385 FILLER_127_766
*2386 FILLER_127_772
*2387 FILLER_127_836
*2388 FILLER_127_842
*2389 FILLER_127_906
*2390 FILLER_127_912
*2391 FILLER_127_976
*2392 FILLER_127_982
*2393 FILLER_128_101
*2394 FILLER_128_1011
*2395 FILLER_128_1017
*2396 FILLER_128_104
*2397 FILLER_128_107
*2398 FILLER_128_1081
*2399 FILLER_128_1087
*2400 FILLER_128_1151
*2401 FILLER_128_1157
*2402 FILLER_128_1221
*2403 FILLER_128_1227
*2404 FILLER_128_1291
*2405 FILLER_128_1297
*2406 FILLER_128_133
*2407 FILLER_128_1361
*2408 FILLER_128_1367
*2409 FILLER_128_1431
*2410 FILLER_128_1437
*2411 FILLER_128_1501
*2412 FILLER_128_1507
*2413 FILLER_128_1571
*2414 FILLER_128_1577
*2415 FILLER_128_1641
*2416 FILLER_128_1647
*2417 FILLER_128_165
*2418 FILLER_128_1711
*2419 FILLER_128_1717
*2420 FILLER_128_173
*2421 FILLER_128_177
*2422 FILLER_128_1781
*2423 FILLER_128_1787
*2424 FILLER_128_1851
*2425 FILLER_128_1857
*2426 FILLER_128_1889
*2427 FILLER_128_1905
*2428 FILLER_128_1913
*2429 FILLER_128_1917
*2430 FILLER_128_1919
*2431 FILLER_128_1924
*2432 FILLER_128_1927
*2433 FILLER_128_1932
*2434 FILLER_128_2
*2435 FILLER_128_24
*2436 FILLER_128_241
*2437 FILLER_128_247
*2438 FILLER_128_311
*2439 FILLER_128_317
*2440 FILLER_128_32
*2441 FILLER_128_34
*2442 FILLER_128_37
*2443 FILLER_128_381
*2444 FILLER_128_387
*2445 FILLER_128_451
*2446 FILLER_128_457
*2447 FILLER_128_521
*2448 FILLER_128_527
*2449 FILLER_128_591
*2450 FILLER_128_597
*2451 FILLER_128_661
*2452 FILLER_128_667
*2453 FILLER_128_72
*2454 FILLER_128_731
*2455 FILLER_128_737
*2456 FILLER_128_801
*2457 FILLER_128_807
*2458 FILLER_128_871
*2459 FILLER_128_877
*2460 FILLER_128_941
*2461 FILLER_128_947
*2462 FILLER_128_99
*2463 FILLER_129_1046
*2464 FILLER_129_1052
*2465 FILLER_129_1116
*2466 FILLER_129_1122
*2467 FILLER_129_1186
*2468 FILLER_129_1192
*2469 FILLER_129_1256
*2470 FILLER_129_126
*2471 FILLER_129_1262
*2472 FILLER_129_130
*2473 FILLER_129_1326
*2474 FILLER_129_1332
*2475 FILLER_129_138
*2476 FILLER_129_1396
*2477 FILLER_129_1402
*2478 FILLER_129_142
*2479 FILLER_129_1466
*2480 FILLER_129_1472
*2481 FILLER_129_1536
*2482 FILLER_129_1542
*2483 FILLER_129_1606
*2484 FILLER_129_1612
*2485 FILLER_129_1676
*2486 FILLER_129_1682
*2487 FILLER_129_1746
*2488 FILLER_129_1752
*2489 FILLER_129_1816
*2490 FILLER_129_1822
*2491 FILLER_129_1886
*2492 FILLER_129_1892
*2493 FILLER_129_1908
*2494 FILLER_129_1920
*2495 FILLER_129_1926
*2496 FILLER_129_1932
*2497 FILLER_129_2
*2498 FILLER_129_206
*2499 FILLER_129_212
*2500 FILLER_129_276
*2501 FILLER_129_282
*2502 FILLER_129_346
*2503 FILLER_129_352
*2504 FILLER_129_416
*2505 FILLER_129_422
*2506 FILLER_129_486
*2507 FILLER_129_492
*2508 FILLER_129_556
*2509 FILLER_129_562
*2510 FILLER_129_626
*2511 FILLER_129_632
*2512 FILLER_129_68
*2513 FILLER_129_696
*2514 FILLER_129_702
*2515 FILLER_129_72
*2516 FILLER_129_766
*2517 FILLER_129_772
*2518 FILLER_129_836
*2519 FILLER_129_842
*2520 FILLER_129_906
*2521 FILLER_129_912
*2522 FILLER_129_976
*2523 FILLER_129_982
*2524 FILLER_129_99
*2525 FILLER_12_101
*2526 FILLER_12_1011
*2527 FILLER_12_1017
*2528 FILLER_12_107
*2529 FILLER_12_1081
*2530 FILLER_12_1087
*2531 FILLER_12_1151
*2532 FILLER_12_1157
*2533 FILLER_12_1221
*2534 FILLER_12_1227
*2535 FILLER_12_1291
*2536 FILLER_12_1297
*2537 FILLER_12_1361
*2538 FILLER_12_1367
*2539 FILLER_12_1431
*2540 FILLER_12_1437
*2541 FILLER_12_1501
*2542 FILLER_12_1507
*2543 FILLER_12_1571
*2544 FILLER_12_1577
*2545 FILLER_12_1641
*2546 FILLER_12_1647
*2547 FILLER_12_171
*2548 FILLER_12_1711
*2549 FILLER_12_1717
*2550 FILLER_12_177
*2551 FILLER_12_1781
*2552 FILLER_12_1787
*2553 FILLER_12_1851
*2554 FILLER_12_1857
*2555 FILLER_12_1921
*2556 FILLER_12_1927
*2557 FILLER_12_1935
*2558 FILLER_12_1937
*2559 FILLER_12_2
*2560 FILLER_12_241
*2561 FILLER_12_247
*2562 FILLER_12_311
*2563 FILLER_12_317
*2564 FILLER_12_34
*2565 FILLER_12_37
*2566 FILLER_12_381
*2567 FILLER_12_387
*2568 FILLER_12_451
*2569 FILLER_12_457
*2570 FILLER_12_521
*2571 FILLER_12_527
*2572 FILLER_12_591
*2573 FILLER_12_597
*2574 FILLER_12_661
*2575 FILLER_12_667
*2576 FILLER_12_731
*2577 FILLER_12_737
*2578 FILLER_12_801
*2579 FILLER_12_807
*2580 FILLER_12_871
*2581 FILLER_12_877
*2582 FILLER_12_941
*2583 FILLER_12_947
*2584 FILLER_130_1011
*2585 FILLER_130_1017
*2586 FILLER_130_103
*2587 FILLER_130_107
*2588 FILLER_130_1081
*2589 FILLER_130_1087
*2590 FILLER_130_1151
*2591 FILLER_130_1157
*2592 FILLER_130_1221
*2593 FILLER_130_1227
*2594 FILLER_130_1291
*2595 FILLER_130_1297
*2596 FILLER_130_133
*2597 FILLER_130_1361
*2598 FILLER_130_1367
*2599 FILLER_130_1431
*2600 FILLER_130_1437
*2601 FILLER_130_1501
*2602 FILLER_130_1507
*2603 FILLER_130_1571
*2604 FILLER_130_1577
*2605 FILLER_130_1641
*2606 FILLER_130_1647
*2607 FILLER_130_165
*2608 FILLER_130_1711
*2609 FILLER_130_1717
*2610 FILLER_130_173
*2611 FILLER_130_177
*2612 FILLER_130_1781
*2613 FILLER_130_1787
*2614 FILLER_130_1851
*2615 FILLER_130_1857
*2616 FILLER_130_1889
*2617 FILLER_130_1905
*2618 FILLER_130_1913
*2619 FILLER_130_1917
*2620 FILLER_130_1919
*2621 FILLER_130_1924
*2622 FILLER_130_1927
*2623 FILLER_130_1932
*2624 FILLER_130_2
*2625 FILLER_130_241
*2626 FILLER_130_247
*2627 FILLER_130_311
*2628 FILLER_130_317
*2629 FILLER_130_34
*2630 FILLER_130_37
*2631 FILLER_130_381
*2632 FILLER_130_387
*2633 FILLER_130_451
*2634 FILLER_130_457
*2635 FILLER_130_521
*2636 FILLER_130_527
*2637 FILLER_130_591
*2638 FILLER_130_597
*2639 FILLER_130_661
*2640 FILLER_130_667
*2641 FILLER_130_72
*2642 FILLER_130_731
*2643 FILLER_130_737
*2644 FILLER_130_801
*2645 FILLER_130_807
*2646 FILLER_130_871
*2647 FILLER_130_877
*2648 FILLER_130_941
*2649 FILLER_130_947
*2650 FILLER_130_99
*2651 FILLER_131_1046
*2652 FILLER_131_1052
*2653 FILLER_131_107
*2654 FILLER_131_1116
*2655 FILLER_131_1122
*2656 FILLER_131_117
*2657 FILLER_131_1186
*2658 FILLER_131_1192
*2659 FILLER_131_1256
*2660 FILLER_131_1262
*2661 FILLER_131_1326
*2662 FILLER_131_133
*2663 FILLER_131_1332
*2664 FILLER_131_137
*2665 FILLER_131_139
*2666 FILLER_131_1396
*2667 FILLER_131_1402
*2668 FILLER_131_142
*2669 FILLER_131_1466
*2670 FILLER_131_1472
*2671 FILLER_131_1536
*2672 FILLER_131_1542
*2673 FILLER_131_1606
*2674 FILLER_131_1612
*2675 FILLER_131_1676
*2676 FILLER_131_1682
*2677 FILLER_131_1746
*2678 FILLER_131_1752
*2679 FILLER_131_1816
*2680 FILLER_131_1822
*2681 FILLER_131_1886
*2682 FILLER_131_1892
*2683 FILLER_131_1908
*2684 FILLER_131_1920
*2685 FILLER_131_1926
*2686 FILLER_131_1932
*2687 FILLER_131_2
*2688 FILLER_131_206
*2689 FILLER_131_212
*2690 FILLER_131_24
*2691 FILLER_131_276
*2692 FILLER_131_282
*2693 FILLER_131_32
*2694 FILLER_131_346
*2695 FILLER_131_352
*2696 FILLER_131_416
*2697 FILLER_131_422
*2698 FILLER_131_486
*2699 FILLER_131_492
*2700 FILLER_131_556
*2701 FILLER_131_562
*2702 FILLER_131_626
*2703 FILLER_131_632
*2704 FILLER_131_68
*2705 FILLER_131_696
*2706 FILLER_131_702
*2707 FILLER_131_72
*2708 FILLER_131_766
*2709 FILLER_131_772
*2710 FILLER_131_836
*2711 FILLER_131_842
*2712 FILLER_131_906
*2713 FILLER_131_912
*2714 FILLER_131_976
*2715 FILLER_131_982
*2716 FILLER_132_1011
*2717 FILLER_132_1017
*2718 FILLER_132_103
*2719 FILLER_132_107
*2720 FILLER_132_1081
*2721 FILLER_132_1087
*2722 FILLER_132_114
*2723 FILLER_132_1151
*2724 FILLER_132_1157
*2725 FILLER_132_1221
*2726 FILLER_132_1227
*2727 FILLER_132_1291
*2728 FILLER_132_1297
*2729 FILLER_132_1361
*2730 FILLER_132_1367
*2731 FILLER_132_1431
*2732 FILLER_132_1437
*2733 FILLER_132_146
*2734 FILLER_132_1501
*2735 FILLER_132_1507
*2736 FILLER_132_1571
*2737 FILLER_132_1577
*2738 FILLER_132_162
*2739 FILLER_132_1641
*2740 FILLER_132_1647
*2741 FILLER_132_170
*2742 FILLER_132_1711
*2743 FILLER_132_1717
*2744 FILLER_132_174
*2745 FILLER_132_177
*2746 FILLER_132_1781
*2747 FILLER_132_1787
*2748 FILLER_132_1851
*2749 FILLER_132_1857
*2750 FILLER_132_1889
*2751 FILLER_132_1905
*2752 FILLER_132_1913
*2753 FILLER_132_1917
*2754 FILLER_132_1919
*2755 FILLER_132_1924
*2756 FILLER_132_1927
*2757 FILLER_132_1932
*2758 FILLER_132_2
*2759 FILLER_132_24
*2760 FILLER_132_241
*2761 FILLER_132_247
*2762 FILLER_132_311
*2763 FILLER_132_317
*2764 FILLER_132_32
*2765 FILLER_132_34
*2766 FILLER_132_37
*2767 FILLER_132_381
*2768 FILLER_132_387
*2769 FILLER_132_451
*2770 FILLER_132_457
*2771 FILLER_132_521
*2772 FILLER_132_527
*2773 FILLER_132_591
*2774 FILLER_132_597
*2775 FILLER_132_661
*2776 FILLER_132_667
*2777 FILLER_132_72
*2778 FILLER_132_731
*2779 FILLER_132_737
*2780 FILLER_132_801
*2781 FILLER_132_807
*2782 FILLER_132_871
*2783 FILLER_132_877
*2784 FILLER_132_941
*2785 FILLER_132_947
*2786 FILLER_132_99
*2787 FILLER_133_10
*2788 FILLER_133_1046
*2789 FILLER_133_1052
*2790 FILLER_133_1116
*2791 FILLER_133_1122
*2792 FILLER_133_1186
*2793 FILLER_133_1192
*2794 FILLER_133_123
*2795 FILLER_133_1256
*2796 FILLER_133_1262
*2797 FILLER_133_1326
*2798 FILLER_133_1332
*2799 FILLER_133_139
*2800 FILLER_133_1396
*2801 FILLER_133_14
*2802 FILLER_133_1402
*2803 FILLER_133_142
*2804 FILLER_133_1466
*2805 FILLER_133_1472
*2806 FILLER_133_1536
*2807 FILLER_133_1542
*2808 FILLER_133_1606
*2809 FILLER_133_1612
*2810 FILLER_133_1676
*2811 FILLER_133_1682
*2812 FILLER_133_1746
*2813 FILLER_133_1752
*2814 FILLER_133_1816
*2815 FILLER_133_1822
*2816 FILLER_133_1886
*2817 FILLER_133_1892
*2818 FILLER_133_1908
*2819 FILLER_133_1920
*2820 FILLER_133_1926
*2821 FILLER_133_1932
*2822 FILLER_133_2
*2823 FILLER_133_206
*2824 FILLER_133_212
*2825 FILLER_133_24
*2826 FILLER_133_276
*2827 FILLER_133_282
*2828 FILLER_133_32
*2829 FILLER_133_346
*2830 FILLER_133_352
*2831 FILLER_133_416
*2832 FILLER_133_422
*2833 FILLER_133_486
*2834 FILLER_133_492
*2835 FILLER_133_556
*2836 FILLER_133_562
*2837 FILLER_133_626
*2838 FILLER_133_632
*2839 FILLER_133_68
*2840 FILLER_133_696
*2841 FILLER_133_702
*2842 FILLER_133_72
*2843 FILLER_133_766
*2844 FILLER_133_772
*2845 FILLER_133_836
*2846 FILLER_133_842
*2847 FILLER_133_906
*2848 FILLER_133_912
*2849 FILLER_133_976
*2850 FILLER_133_982
*2851 FILLER_134_1011
*2852 FILLER_134_1017
*2853 FILLER_134_103
*2854 FILLER_134_107
*2855 FILLER_134_1081
*2856 FILLER_134_1087
*2857 FILLER_134_114
*2858 FILLER_134_1151
*2859 FILLER_134_1157
*2860 FILLER_134_1221
*2861 FILLER_134_1227
*2862 FILLER_134_1291
*2863 FILLER_134_1297
*2864 FILLER_134_1361
*2865 FILLER_134_1367
*2866 FILLER_134_1431
*2867 FILLER_134_1437
*2868 FILLER_134_146
*2869 FILLER_134_1501
*2870 FILLER_134_1507
*2871 FILLER_134_1571
*2872 FILLER_134_1577
*2873 FILLER_134_162
*2874 FILLER_134_1641
*2875 FILLER_134_1647
*2876 FILLER_134_170
*2877 FILLER_134_1711
*2878 FILLER_134_1717
*2879 FILLER_134_174
*2880 FILLER_134_177
*2881 FILLER_134_1781
*2882 FILLER_134_1787
*2883 FILLER_134_1851
*2884 FILLER_134_1857
*2885 FILLER_134_1889
*2886 FILLER_134_1905
*2887 FILLER_134_1913
*2888 FILLER_134_1917
*2889 FILLER_134_1919
*2890 FILLER_134_1924
*2891 FILLER_134_1927
*2892 FILLER_134_1932
*2893 FILLER_134_2
*2894 FILLER_134_241
*2895 FILLER_134_247
*2896 FILLER_134_311
*2897 FILLER_134_317
*2898 FILLER_134_34
*2899 FILLER_134_37
*2900 FILLER_134_381
*2901 FILLER_134_387
*2902 FILLER_134_451
*2903 FILLER_134_457
*2904 FILLER_134_521
*2905 FILLER_134_527
*2906 FILLER_134_591
*2907 FILLER_134_597
*2908 FILLER_134_661
*2909 FILLER_134_667
*2910 FILLER_134_72
*2911 FILLER_134_731
*2912 FILLER_134_737
*2913 FILLER_134_801
*2914 FILLER_134_807
*2915 FILLER_134_871
*2916 FILLER_134_877
*2917 FILLER_134_941
*2918 FILLER_134_947
*2919 FILLER_134_99
*2920 FILLER_135_1046
*2921 FILLER_135_1052
*2922 FILLER_135_1116
*2923 FILLER_135_1122
*2924 FILLER_135_1186
*2925 FILLER_135_1192
*2926 FILLER_135_125
*2927 FILLER_135_1256
*2928 FILLER_135_1262
*2929 FILLER_135_1326
*2930 FILLER_135_133
*2931 FILLER_135_1332
*2932 FILLER_135_137
*2933 FILLER_135_139
*2934 FILLER_135_1396
*2935 FILLER_135_1402
*2936 FILLER_135_142
*2937 FILLER_135_1466
*2938 FILLER_135_1472
*2939 FILLER_135_1536
*2940 FILLER_135_1542
*2941 FILLER_135_1606
*2942 FILLER_135_1612
*2943 FILLER_135_1676
*2944 FILLER_135_1682
*2945 FILLER_135_1746
*2946 FILLER_135_1752
*2947 FILLER_135_1816
*2948 FILLER_135_1822
*2949 FILLER_135_1886
*2950 FILLER_135_1892
*2951 FILLER_135_1908
*2952 FILLER_135_1920
*2953 FILLER_135_1926
*2954 FILLER_135_1932
*2955 FILLER_135_206
*2956 FILLER_135_212
*2957 FILLER_135_24
*2958 FILLER_135_276
*2959 FILLER_135_282
*2960 FILLER_135_32
*2961 FILLER_135_346
*2962 FILLER_135_352
*2963 FILLER_135_416
*2964 FILLER_135_422
*2965 FILLER_135_486
*2966 FILLER_135_492
*2967 FILLER_135_556
*2968 FILLER_135_562
*2969 FILLER_135_6
*2970 FILLER_135_626
*2971 FILLER_135_632
*2972 FILLER_135_68
*2973 FILLER_135_696
*2974 FILLER_135_702
*2975 FILLER_135_72
*2976 FILLER_135_766
*2977 FILLER_135_772
*2978 FILLER_135_836
*2979 FILLER_135_842
*2980 FILLER_135_906
*2981 FILLER_135_912
*2982 FILLER_135_976
*2983 FILLER_135_98
*2984 FILLER_135_982
*2985 FILLER_136_1011
*2986 FILLER_136_1017
*2987 FILLER_136_103
*2988 FILLER_136_107
*2989 FILLER_136_1081
*2990 FILLER_136_1087
*2991 FILLER_136_114
*2992 FILLER_136_1151
*2993 FILLER_136_1157
*2994 FILLER_136_12
*2995 FILLER_136_1221
*2996 FILLER_136_1227
*2997 FILLER_136_1291
*2998 FILLER_136_1297
*2999 FILLER_136_1361
*3000 FILLER_136_1367
*3001 FILLER_136_1431
*3002 FILLER_136_1437
*3003 FILLER_136_146
*3004 FILLER_136_1501
*3005 FILLER_136_1507
*3006 FILLER_136_1571
*3007 FILLER_136_1577
*3008 FILLER_136_162
*3009 FILLER_136_1641
*3010 FILLER_136_1647
*3011 FILLER_136_170
*3012 FILLER_136_1711
*3013 FILLER_136_1717
*3014 FILLER_136_174
*3015 FILLER_136_177
*3016 FILLER_136_1781
*3017 FILLER_136_1787
*3018 FILLER_136_1851
*3019 FILLER_136_1857
*3020 FILLER_136_1889
*3021 FILLER_136_1905
*3022 FILLER_136_1913
*3023 FILLER_136_1917
*3024 FILLER_136_1919
*3025 FILLER_136_1924
*3026 FILLER_136_1927
*3027 FILLER_136_1932
*3028 FILLER_136_241
*3029 FILLER_136_247
*3030 FILLER_136_28
*3031 FILLER_136_311
*3032 FILLER_136_317
*3033 FILLER_136_32
*3034 FILLER_136_34
*3035 FILLER_136_37
*3036 FILLER_136_381
*3037 FILLER_136_387
*3038 FILLER_136_451
*3039 FILLER_136_457
*3040 FILLER_136_521
*3041 FILLER_136_527
*3042 FILLER_136_591
*3043 FILLER_136_597
*3044 FILLER_136_6
*3045 FILLER_136_661
*3046 FILLER_136_667
*3047 FILLER_136_72
*3048 FILLER_136_731
*3049 FILLER_136_737
*3050 FILLER_136_801
*3051 FILLER_136_807
*3052 FILLER_136_871
*3053 FILLER_136_877
*3054 FILLER_136_941
*3055 FILLER_136_947
*3056 FILLER_136_99
*3057 FILLER_137_1046
*3058 FILLER_137_1052
*3059 FILLER_137_109
*3060 FILLER_137_1116
*3061 FILLER_137_1122
*3062 FILLER_137_1186
*3063 FILLER_137_1192
*3064 FILLER_137_125
*3065 FILLER_137_1256
*3066 FILLER_137_1262
*3067 FILLER_137_1326
*3068 FILLER_137_133
*3069 FILLER_137_1332
*3070 FILLER_137_137
*3071 FILLER_137_139
*3072 FILLER_137_1396
*3073 FILLER_137_1402
*3074 FILLER_137_142
*3075 FILLER_137_1466
*3076 FILLER_137_1472
*3077 FILLER_137_1536
*3078 FILLER_137_1542
*3079 FILLER_137_1606
*3080 FILLER_137_1612
*3081 FILLER_137_1676
*3082 FILLER_137_1682
*3083 FILLER_137_1746
*3084 FILLER_137_1752
*3085 FILLER_137_1816
*3086 FILLER_137_1822
*3087 FILLER_137_1886
*3088 FILLER_137_1892
*3089 FILLER_137_1908
*3090 FILLER_137_1916
*3091 FILLER_137_1920
*3092 FILLER_137_1926
*3093 FILLER_137_1932
*3094 FILLER_137_2
*3095 FILLER_137_206
*3096 FILLER_137_212
*3097 FILLER_137_276
*3098 FILLER_137_282
*3099 FILLER_137_34
*3100 FILLER_137_346
*3101 FILLER_137_352
*3102 FILLER_137_416
*3103 FILLER_137_422
*3104 FILLER_137_486
*3105 FILLER_137_492
*3106 FILLER_137_556
*3107 FILLER_137_562
*3108 FILLER_137_626
*3109 FILLER_137_632
*3110 FILLER_137_69
*3111 FILLER_137_696
*3112 FILLER_137_702
*3113 FILLER_137_72
*3114 FILLER_137_766
*3115 FILLER_137_772
*3116 FILLER_137_836
*3117 FILLER_137_842
*3118 FILLER_137_906
*3119 FILLER_137_912
*3120 FILLER_137_976
*3121 FILLER_137_982
*3122 FILLER_137_99
*3123 FILLER_138_1011
*3124 FILLER_138_1017
*3125 FILLER_138_104
*3126 FILLER_138_107
*3127 FILLER_138_1081
*3128 FILLER_138_1087
*3129 FILLER_138_114
*3130 FILLER_138_1151
*3131 FILLER_138_1157
*3132 FILLER_138_1221
*3133 FILLER_138_1227
*3134 FILLER_138_1291
*3135 FILLER_138_1297
*3136 FILLER_138_1361
*3137 FILLER_138_1367
*3138 FILLER_138_1431
*3139 FILLER_138_1437
*3140 FILLER_138_146
*3141 FILLER_138_1501
*3142 FILLER_138_1507
*3143 FILLER_138_1571
*3144 FILLER_138_1577
*3145 FILLER_138_162
*3146 FILLER_138_1641
*3147 FILLER_138_1647
*3148 FILLER_138_170
*3149 FILLER_138_1711
*3150 FILLER_138_1717
*3151 FILLER_138_174
*3152 FILLER_138_177
*3153 FILLER_138_1781
*3154 FILLER_138_1787
*3155 FILLER_138_1851
*3156 FILLER_138_1857
*3157 FILLER_138_1921
*3158 FILLER_138_1927
*3159 FILLER_138_1932
*3160 FILLER_138_2
*3161 FILLER_138_241
*3162 FILLER_138_247
*3163 FILLER_138_311
*3164 FILLER_138_317
*3165 FILLER_138_34
*3166 FILLER_138_37
*3167 FILLER_138_381
*3168 FILLER_138_387
*3169 FILLER_138_41
*3170 FILLER_138_451
*3171 FILLER_138_457
*3172 FILLER_138_521
*3173 FILLER_138_527
*3174 FILLER_138_591
*3175 FILLER_138_597
*3176 FILLER_138_661
*3177 FILLER_138_667
*3178 FILLER_138_731
*3179 FILLER_138_737
*3180 FILLER_138_801
*3181 FILLER_138_807
*3182 FILLER_138_871
*3183 FILLER_138_877
*3184 FILLER_138_92
*3185 FILLER_138_941
*3186 FILLER_138_947
*3187 FILLER_138_96
*3188 FILLER_139_10
*3189 FILLER_139_1046
*3190 FILLER_139_1052
*3191 FILLER_139_106
*3192 FILLER_139_1116
*3193 FILLER_139_1122
*3194 FILLER_139_114
*3195 FILLER_139_1186
*3196 FILLER_139_1192
*3197 FILLER_139_1256
*3198 FILLER_139_1262
*3199 FILLER_139_130
*3200 FILLER_139_1326
*3201 FILLER_139_1332
*3202 FILLER_139_138
*3203 FILLER_139_1396
*3204 FILLER_139_14
*3205 FILLER_139_1402
*3206 FILLER_139_142
*3207 FILLER_139_1466
*3208 FILLER_139_1472
*3209 FILLER_139_1536
*3210 FILLER_139_1542
*3211 FILLER_139_1606
*3212 FILLER_139_1612
*3213 FILLER_139_1676
*3214 FILLER_139_1682
*3215 FILLER_139_1746
*3216 FILLER_139_1752
*3217 FILLER_139_1816
*3218 FILLER_139_1822
*3219 FILLER_139_1886
*3220 FILLER_139_1892
*3221 FILLER_139_1908
*3222 FILLER_139_1916
*3223 FILLER_139_1920
*3224 FILLER_139_1926
*3225 FILLER_139_1932
*3226 FILLER_139_2
*3227 FILLER_139_206
*3228 FILLER_139_212
*3229 FILLER_139_24
*3230 FILLER_139_276
*3231 FILLER_139_282
*3232 FILLER_139_32
*3233 FILLER_139_34
*3234 FILLER_139_346
*3235 FILLER_139_352
*3236 FILLER_139_416
*3237 FILLER_139_422
*3238 FILLER_139_486
*3239 FILLER_139_492
*3240 FILLER_139_556
*3241 FILLER_139_562
*3242 FILLER_139_626
*3243 FILLER_139_632
*3244 FILLER_139_69
*3245 FILLER_139_696
*3246 FILLER_139_702
*3247 FILLER_139_72
*3248 FILLER_139_766
*3249 FILLER_139_772
*3250 FILLER_139_836
*3251 FILLER_139_842
*3252 FILLER_139_906
*3253 FILLER_139_912
*3254 FILLER_139_976
*3255 FILLER_139_98
*3256 FILLER_139_982
*3257 FILLER_13_1046
*3258 FILLER_13_1052
*3259 FILLER_13_1116
*3260 FILLER_13_1122
*3261 FILLER_13_1186
*3262 FILLER_13_1192
*3263 FILLER_13_1256
*3264 FILLER_13_1262
*3265 FILLER_13_1326
*3266 FILLER_13_1332
*3267 FILLER_13_136
*3268 FILLER_13_1396
*3269 FILLER_13_1402
*3270 FILLER_13_142
*3271 FILLER_13_1466
*3272 FILLER_13_1472
*3273 FILLER_13_1536
*3274 FILLER_13_1542
*3275 FILLER_13_1606
*3276 FILLER_13_1612
*3277 FILLER_13_1676
*3278 FILLER_13_1682
*3279 FILLER_13_1746
*3280 FILLER_13_1752
*3281 FILLER_13_1816
*3282 FILLER_13_1822
*3283 FILLER_13_1886
*3284 FILLER_13_1892
*3285 FILLER_13_1924
*3286 FILLER_13_1932
*3287 FILLER_13_1936
*3288 FILLER_13_2
*3289 FILLER_13_206
*3290 FILLER_13_212
*3291 FILLER_13_276
*3292 FILLER_13_282
*3293 FILLER_13_346
*3294 FILLER_13_352
*3295 FILLER_13_416
*3296 FILLER_13_422
*3297 FILLER_13_486
*3298 FILLER_13_492
*3299 FILLER_13_556
*3300 FILLER_13_562
*3301 FILLER_13_626
*3302 FILLER_13_632
*3303 FILLER_13_66
*3304 FILLER_13_696
*3305 FILLER_13_702
*3306 FILLER_13_72
*3307 FILLER_13_766
*3308 FILLER_13_772
*3309 FILLER_13_836
*3310 FILLER_13_842
*3311 FILLER_13_906
*3312 FILLER_13_912
*3313 FILLER_13_976
*3314 FILLER_13_982
*3315 FILLER_140_1011
*3316 FILLER_140_1017
*3317 FILLER_140_104
*3318 FILLER_140_107
*3319 FILLER_140_1081
*3320 FILLER_140_1087
*3321 FILLER_140_114
*3322 FILLER_140_1151
*3323 FILLER_140_1157
*3324 FILLER_140_1221
*3325 FILLER_140_1227
*3326 FILLER_140_1291
*3327 FILLER_140_1297
*3328 FILLER_140_1361
*3329 FILLER_140_1367
*3330 FILLER_140_1431
*3331 FILLER_140_1437
*3332 FILLER_140_146
*3333 FILLER_140_1501
*3334 FILLER_140_1507
*3335 FILLER_140_1571
*3336 FILLER_140_1577
*3337 FILLER_140_162
*3338 FILLER_140_1641
*3339 FILLER_140_1647
*3340 FILLER_140_170
*3341 FILLER_140_1711
*3342 FILLER_140_1717
*3343 FILLER_140_174
*3344 FILLER_140_177
*3345 FILLER_140_1781
*3346 FILLER_140_1787
*3347 FILLER_140_1851
*3348 FILLER_140_1857
*3349 FILLER_140_1921
*3350 FILLER_140_1927
*3351 FILLER_140_1932
*3352 FILLER_140_2
*3353 FILLER_140_241
*3354 FILLER_140_247
*3355 FILLER_140_311
*3356 FILLER_140_317
*3357 FILLER_140_34
*3358 FILLER_140_37
*3359 FILLER_140_381
*3360 FILLER_140_387
*3361 FILLER_140_451
*3362 FILLER_140_457
*3363 FILLER_140_521
*3364 FILLER_140_527
*3365 FILLER_140_591
*3366 FILLER_140_597
*3367 FILLER_140_64
*3368 FILLER_140_661
*3369 FILLER_140_667
*3370 FILLER_140_731
*3371 FILLER_140_737
*3372 FILLER_140_801
*3373 FILLER_140_807
*3374 FILLER_140_871
*3375 FILLER_140_877
*3376 FILLER_140_941
*3377 FILLER_140_947
*3378 FILLER_141_1046
*3379 FILLER_141_1052
*3380 FILLER_141_1116
*3381 FILLER_141_1122
*3382 FILLER_141_1186
*3383 FILLER_141_1192
*3384 FILLER_141_123
*3385 FILLER_141_1256
*3386 FILLER_141_1262
*3387 FILLER_141_1326
*3388 FILLER_141_1332
*3389 FILLER_141_139
*3390 FILLER_141_1396
*3391 FILLER_141_1402
*3392 FILLER_141_142
*3393 FILLER_141_1466
*3394 FILLER_141_1472
*3395 FILLER_141_1536
*3396 FILLER_141_1542
*3397 FILLER_141_1606
*3398 FILLER_141_1612
*3399 FILLER_141_1676
*3400 FILLER_141_1682
*3401 FILLER_141_1746
*3402 FILLER_141_1752
*3403 FILLER_141_1816
*3404 FILLER_141_1822
*3405 FILLER_141_1886
*3406 FILLER_141_1892
*3407 FILLER_141_1908
*3408 FILLER_141_1916
*3409 FILLER_141_1920
*3410 FILLER_141_1926
*3411 FILLER_141_1932
*3412 FILLER_141_2
*3413 FILLER_141_206
*3414 FILLER_141_212
*3415 FILLER_141_276
*3416 FILLER_141_282
*3417 FILLER_141_34
*3418 FILLER_141_346
*3419 FILLER_141_352
*3420 FILLER_141_416
*3421 FILLER_141_422
*3422 FILLER_141_486
*3423 FILLER_141_492
*3424 FILLER_141_556
*3425 FILLER_141_562
*3426 FILLER_141_626
*3427 FILLER_141_632
*3428 FILLER_141_69
*3429 FILLER_141_696
*3430 FILLER_141_702
*3431 FILLER_141_72
*3432 FILLER_141_766
*3433 FILLER_141_772
*3434 FILLER_141_836
*3435 FILLER_141_842
*3436 FILLER_141_906
*3437 FILLER_141_912
*3438 FILLER_141_976
*3439 FILLER_141_982
*3440 FILLER_142_1011
*3441 FILLER_142_1017
*3442 FILLER_142_103
*3443 FILLER_142_107
*3444 FILLER_142_1081
*3445 FILLER_142_1087
*3446 FILLER_142_1151
*3447 FILLER_142_1157
*3448 FILLER_142_1221
*3449 FILLER_142_1227
*3450 FILLER_142_1291
*3451 FILLER_142_1297
*3452 FILLER_142_1361
*3453 FILLER_142_1367
*3454 FILLER_142_1431
*3455 FILLER_142_1437
*3456 FILLER_142_1501
*3457 FILLER_142_1507
*3458 FILLER_142_1571
*3459 FILLER_142_1577
*3460 FILLER_142_1641
*3461 FILLER_142_1647
*3462 FILLER_142_171
*3463 FILLER_142_1711
*3464 FILLER_142_1717
*3465 FILLER_142_177
*3466 FILLER_142_1781
*3467 FILLER_142_1787
*3468 FILLER_142_1851
*3469 FILLER_142_1857
*3470 FILLER_142_1921
*3471 FILLER_142_1927
*3472 FILLER_142_1932
*3473 FILLER_142_2
*3474 FILLER_142_241
*3475 FILLER_142_247
*3476 FILLER_142_311
*3477 FILLER_142_317
*3478 FILLER_142_34
*3479 FILLER_142_37
*3480 FILLER_142_381
*3481 FILLER_142_387
*3482 FILLER_142_451
*3483 FILLER_142_457
*3484 FILLER_142_521
*3485 FILLER_142_527
*3486 FILLER_142_591
*3487 FILLER_142_597
*3488 FILLER_142_661
*3489 FILLER_142_667
*3490 FILLER_142_72
*3491 FILLER_142_731
*3492 FILLER_142_737
*3493 FILLER_142_801
*3494 FILLER_142_807
*3495 FILLER_142_871
*3496 FILLER_142_877
*3497 FILLER_142_941
*3498 FILLER_142_947
*3499 FILLER_142_99
*3500 FILLER_143_10
*3501 FILLER_143_1046
*3502 FILLER_143_1052
*3503 FILLER_143_1116
*3504 FILLER_143_1122
*3505 FILLER_143_1186
*3506 FILLER_143_1192
*3507 FILLER_143_1256
*3508 FILLER_143_1262
*3509 FILLER_143_131
*3510 FILLER_143_1326
*3511 FILLER_143_1332
*3512 FILLER_143_139
*3513 FILLER_143_1396
*3514 FILLER_143_14
*3515 FILLER_143_1402
*3516 FILLER_143_142
*3517 FILLER_143_1466
*3518 FILLER_143_1472
*3519 FILLER_143_1536
*3520 FILLER_143_1542
*3521 FILLER_143_1606
*3522 FILLER_143_1612
*3523 FILLER_143_1676
*3524 FILLER_143_1682
*3525 FILLER_143_1746
*3526 FILLER_143_1752
*3527 FILLER_143_1816
*3528 FILLER_143_1822
*3529 FILLER_143_1886
*3530 FILLER_143_1892
*3531 FILLER_143_1908
*3532 FILLER_143_1916
*3533 FILLER_143_1920
*3534 FILLER_143_1926
*3535 FILLER_143_1932
*3536 FILLER_143_2
*3537 FILLER_143_206
*3538 FILLER_143_212
*3539 FILLER_143_24
*3540 FILLER_143_276
*3541 FILLER_143_282
*3542 FILLER_143_32
*3543 FILLER_143_346
*3544 FILLER_143_352
*3545 FILLER_143_416
*3546 FILLER_143_422
*3547 FILLER_143_486
*3548 FILLER_143_492
*3549 FILLER_143_556
*3550 FILLER_143_562
*3551 FILLER_143_626
*3552 FILLER_143_632
*3553 FILLER_143_68
*3554 FILLER_143_696
*3555 FILLER_143_702
*3556 FILLER_143_72
*3557 FILLER_143_766
*3558 FILLER_143_772
*3559 FILLER_143_836
*3560 FILLER_143_842
*3561 FILLER_143_906
*3562 FILLER_143_912
*3563 FILLER_143_976
*3564 FILLER_143_982
*3565 FILLER_143_99
*3566 FILLER_144_1011
*3567 FILLER_144_1017
*3568 FILLER_144_103
*3569 FILLER_144_107
*3570 FILLER_144_1081
*3571 FILLER_144_1087
*3572 FILLER_144_1151
*3573 FILLER_144_1157
*3574 FILLER_144_1221
*3575 FILLER_144_1227
*3576 FILLER_144_1291
*3577 FILLER_144_1297
*3578 FILLER_144_1361
*3579 FILLER_144_1367
*3580 FILLER_144_1431
*3581 FILLER_144_1437
*3582 FILLER_144_1501
*3583 FILLER_144_1507
*3584 FILLER_144_1571
*3585 FILLER_144_1577
*3586 FILLER_144_1641
*3587 FILLER_144_1647
*3588 FILLER_144_171
*3589 FILLER_144_1711
*3590 FILLER_144_1717
*3591 FILLER_144_177
*3592 FILLER_144_1781
*3593 FILLER_144_1787
*3594 FILLER_144_1851
*3595 FILLER_144_1857
*3596 FILLER_144_1889
*3597 FILLER_144_1905
*3598 FILLER_144_1913
*3599 FILLER_144_1917
*3600 FILLER_144_1919
*3601 FILLER_144_1924
*3602 FILLER_144_1927
*3603 FILLER_144_1932
*3604 FILLER_144_2
*3605 FILLER_144_241
*3606 FILLER_144_247
*3607 FILLER_144_311
*3608 FILLER_144_317
*3609 FILLER_144_34
*3610 FILLER_144_37
*3611 FILLER_144_381
*3612 FILLER_144_387
*3613 FILLER_144_451
*3614 FILLER_144_457
*3615 FILLER_144_521
*3616 FILLER_144_527
*3617 FILLER_144_591
*3618 FILLER_144_597
*3619 FILLER_144_661
*3620 FILLER_144_667
*3621 FILLER_144_72
*3622 FILLER_144_731
*3623 FILLER_144_737
*3624 FILLER_144_801
*3625 FILLER_144_807
*3626 FILLER_144_871
*3627 FILLER_144_877
*3628 FILLER_144_941
*3629 FILLER_144_947
*3630 FILLER_144_99
*3631 FILLER_145_103
*3632 FILLER_145_1046
*3633 FILLER_145_1052
*3634 FILLER_145_1116
*3635 FILLER_145_1122
*3636 FILLER_145_1186
*3637 FILLER_145_1192
*3638 FILLER_145_1256
*3639 FILLER_145_1262
*3640 FILLER_145_1326
*3641 FILLER_145_1332
*3642 FILLER_145_135
*3643 FILLER_145_139
*3644 FILLER_145_1396
*3645 FILLER_145_1402
*3646 FILLER_145_142
*3647 FILLER_145_1466
*3648 FILLER_145_1472
*3649 FILLER_145_1536
*3650 FILLER_145_1542
*3651 FILLER_145_1606
*3652 FILLER_145_1612
*3653 FILLER_145_1676
*3654 FILLER_145_1682
*3655 FILLER_145_1746
*3656 FILLER_145_1752
*3657 FILLER_145_1816
*3658 FILLER_145_1822
*3659 FILLER_145_1886
*3660 FILLER_145_1892
*3661 FILLER_145_1908
*3662 FILLER_145_1920
*3663 FILLER_145_1926
*3664 FILLER_145_1932
*3665 FILLER_145_2
*3666 FILLER_145_206
*3667 FILLER_145_212
*3668 FILLER_145_276
*3669 FILLER_145_282
*3670 FILLER_145_346
*3671 FILLER_145_352
*3672 FILLER_145_416
*3673 FILLER_145_422
*3674 FILLER_145_486
*3675 FILLER_145_492
*3676 FILLER_145_556
*3677 FILLER_145_562
*3678 FILLER_145_626
*3679 FILLER_145_632
*3680 FILLER_145_68
*3681 FILLER_145_696
*3682 FILLER_145_702
*3683 FILLER_145_72
*3684 FILLER_145_766
*3685 FILLER_145_772
*3686 FILLER_145_836
*3687 FILLER_145_842
*3688 FILLER_145_906
*3689 FILLER_145_912
*3690 FILLER_145_976
*3691 FILLER_145_982
*3692 FILLER_145_99
*3693 FILLER_146_1011
*3694 FILLER_146_1017
*3695 FILLER_146_103
*3696 FILLER_146_107
*3697 FILLER_146_1081
*3698 FILLER_146_1087
*3699 FILLER_146_1151
*3700 FILLER_146_1157
*3701 FILLER_146_1221
*3702 FILLER_146_1227
*3703 FILLER_146_1291
*3704 FILLER_146_1297
*3705 FILLER_146_1361
*3706 FILLER_146_1367
*3707 FILLER_146_1431
*3708 FILLER_146_1437
*3709 FILLER_146_1501
*3710 FILLER_146_1507
*3711 FILLER_146_1571
*3712 FILLER_146_1577
*3713 FILLER_146_1641
*3714 FILLER_146_1647
*3715 FILLER_146_171
*3716 FILLER_146_1711
*3717 FILLER_146_1717
*3718 FILLER_146_177
*3719 FILLER_146_1781
*3720 FILLER_146_1787
*3721 FILLER_146_1851
*3722 FILLER_146_1857
*3723 FILLER_146_1889
*3724 FILLER_146_1905
*3725 FILLER_146_1913
*3726 FILLER_146_1917
*3727 FILLER_146_1919
*3728 FILLER_146_1924
*3729 FILLER_146_1927
*3730 FILLER_146_1932
*3731 FILLER_146_2
*3732 FILLER_146_241
*3733 FILLER_146_247
*3734 FILLER_146_311
*3735 FILLER_146_317
*3736 FILLER_146_34
*3737 FILLER_146_37
*3738 FILLER_146_381
*3739 FILLER_146_387
*3740 FILLER_146_451
*3741 FILLER_146_457
*3742 FILLER_146_521
*3743 FILLER_146_527
*3744 FILLER_146_591
*3745 FILLER_146_597
*3746 FILLER_146_661
*3747 FILLER_146_667
*3748 FILLER_146_72
*3749 FILLER_146_731
*3750 FILLER_146_737
*3751 FILLER_146_801
*3752 FILLER_146_807
*3753 FILLER_146_871
*3754 FILLER_146_877
*3755 FILLER_146_941
*3756 FILLER_146_947
*3757 FILLER_146_99
*3758 FILLER_147_1046
*3759 FILLER_147_1052
*3760 FILLER_147_1116
*3761 FILLER_147_1122
*3762 FILLER_147_1186
*3763 FILLER_147_1192
*3764 FILLER_147_122
*3765 FILLER_147_1256
*3766 FILLER_147_1262
*3767 FILLER_147_1326
*3768 FILLER_147_1332
*3769 FILLER_147_138
*3770 FILLER_147_1396
*3771 FILLER_147_1402
*3772 FILLER_147_142
*3773 FILLER_147_1466
*3774 FILLER_147_1472
*3775 FILLER_147_1536
*3776 FILLER_147_1542
*3777 FILLER_147_1606
*3778 FILLER_147_1612
*3779 FILLER_147_1676
*3780 FILLER_147_1682
*3781 FILLER_147_1746
*3782 FILLER_147_1752
*3783 FILLER_147_1816
*3784 FILLER_147_1822
*3785 FILLER_147_1886
*3786 FILLER_147_1892
*3787 FILLER_147_1908
*3788 FILLER_147_1920
*3789 FILLER_147_1926
*3790 FILLER_147_1932
*3791 FILLER_147_2
*3792 FILLER_147_206
*3793 FILLER_147_212
*3794 FILLER_147_276
*3795 FILLER_147_282
*3796 FILLER_147_346
*3797 FILLER_147_352
*3798 FILLER_147_416
*3799 FILLER_147_422
*3800 FILLER_147_486
*3801 FILLER_147_492
*3802 FILLER_147_556
*3803 FILLER_147_562
*3804 FILLER_147_626
*3805 FILLER_147_632
*3806 FILLER_147_68
*3807 FILLER_147_696
*3808 FILLER_147_702
*3809 FILLER_147_72
*3810 FILLER_147_766
*3811 FILLER_147_772
*3812 FILLER_147_82
*3813 FILLER_147_836
*3814 FILLER_147_842
*3815 FILLER_147_90
*3816 FILLER_147_906
*3817 FILLER_147_912
*3818 FILLER_147_976
*3819 FILLER_147_982
*3820 FILLER_148_1011
*3821 FILLER_148_1017
*3822 FILLER_148_102
*3823 FILLER_148_104
*3824 FILLER_148_107
*3825 FILLER_148_1081
*3826 FILLER_148_1087
*3827 FILLER_148_1151
*3828 FILLER_148_1157
*3829 FILLER_148_1221
*3830 FILLER_148_1227
*3831 FILLER_148_1291
*3832 FILLER_148_1297
*3833 FILLER_148_1361
*3834 FILLER_148_1367
*3835 FILLER_148_1431
*3836 FILLER_148_1437
*3837 FILLER_148_1501
*3838 FILLER_148_1507
*3839 FILLER_148_1571
*3840 FILLER_148_1577
*3841 FILLER_148_1641
*3842 FILLER_148_1647
*3843 FILLER_148_171
*3844 FILLER_148_1711
*3845 FILLER_148_1717
*3846 FILLER_148_177
*3847 FILLER_148_1781
*3848 FILLER_148_1787
*3849 FILLER_148_1851
*3850 FILLER_148_1857
*3851 FILLER_148_1889
*3852 FILLER_148_1905
*3853 FILLER_148_1913
*3854 FILLER_148_1917
*3855 FILLER_148_1919
*3856 FILLER_148_1924
*3857 FILLER_148_1927
*3858 FILLER_148_1932
*3859 FILLER_148_2
*3860 FILLER_148_241
*3861 FILLER_148_247
*3862 FILLER_148_311
*3863 FILLER_148_317
*3864 FILLER_148_34
*3865 FILLER_148_37
*3866 FILLER_148_381
*3867 FILLER_148_387
*3868 FILLER_148_451
*3869 FILLER_148_457
*3870 FILLER_148_521
*3871 FILLER_148_527
*3872 FILLER_148_591
*3873 FILLER_148_597
*3874 FILLER_148_63
*3875 FILLER_148_661
*3876 FILLER_148_667
*3877 FILLER_148_731
*3878 FILLER_148_737
*3879 FILLER_148_801
*3880 FILLER_148_807
*3881 FILLER_148_871
*3882 FILLER_148_877
*3883 FILLER_148_90
*3884 FILLER_148_941
*3885 FILLER_148_947
*3886 FILLER_148_98
*3887 FILLER_149_1046
*3888 FILLER_149_1052
*3889 FILLER_149_1116
*3890 FILLER_149_1122
*3891 FILLER_149_1186
*3892 FILLER_149_1192
*3893 FILLER_149_120
*3894 FILLER_149_1256
*3895 FILLER_149_1262
*3896 FILLER_149_1326
*3897 FILLER_149_1332
*3898 FILLER_149_136
*3899 FILLER_149_1396
*3900 FILLER_149_1402
*3901 FILLER_149_142
*3902 FILLER_149_1466
*3903 FILLER_149_1472
*3904 FILLER_149_1536
*3905 FILLER_149_1542
*3906 FILLER_149_1606
*3907 FILLER_149_1612
*3908 FILLER_149_1676
*3909 FILLER_149_1682
*3910 FILLER_149_1746
*3911 FILLER_149_1752
*3912 FILLER_149_1816
*3913 FILLER_149_1822
*3914 FILLER_149_1886
*3915 FILLER_149_1892
*3916 FILLER_149_1908
*3917 FILLER_149_1920
*3918 FILLER_149_1926
*3919 FILLER_149_1932
*3920 FILLER_149_2
*3921 FILLER_149_206
*3922 FILLER_149_212
*3923 FILLER_149_276
*3924 FILLER_149_282
*3925 FILLER_149_34
*3926 FILLER_149_346
*3927 FILLER_149_352
*3928 FILLER_149_38
*3929 FILLER_149_416
*3930 FILLER_149_422
*3931 FILLER_149_486
*3932 FILLER_149_492
*3933 FILLER_149_556
*3934 FILLER_149_562
*3935 FILLER_149_626
*3936 FILLER_149_632
*3937 FILLER_149_64
*3938 FILLER_149_66
*3939 FILLER_149_69
*3940 FILLER_149_696
*3941 FILLER_149_702
*3942 FILLER_149_72
*3943 FILLER_149_766
*3944 FILLER_149_772
*3945 FILLER_149_80
*3946 FILLER_149_836
*3947 FILLER_149_842
*3948 FILLER_149_88
*3949 FILLER_149_906
*3950 FILLER_149_912
*3951 FILLER_149_976
*3952 FILLER_149_982
*3953 FILLER_14_101
*3954 FILLER_14_1011
*3955 FILLER_14_1017
*3956 FILLER_14_107
*3957 FILLER_14_1081
*3958 FILLER_14_1087
*3959 FILLER_14_1151
*3960 FILLER_14_1157
*3961 FILLER_14_1221
*3962 FILLER_14_1227
*3963 FILLER_14_1291
*3964 FILLER_14_1297
*3965 FILLER_14_1361
*3966 FILLER_14_1367
*3967 FILLER_14_1431
*3968 FILLER_14_1437
*3969 FILLER_14_1501
*3970 FILLER_14_1507
*3971 FILLER_14_1571
*3972 FILLER_14_1577
*3973 FILLER_14_1641
*3974 FILLER_14_1647
*3975 FILLER_14_171
*3976 FILLER_14_1711
*3977 FILLER_14_1717
*3978 FILLER_14_177
*3979 FILLER_14_1781
*3980 FILLER_14_1787
*3981 FILLER_14_1851
*3982 FILLER_14_1857
*3983 FILLER_14_1921
*3984 FILLER_14_1927
*3985 FILLER_14_1935
*3986 FILLER_14_1937
*3987 FILLER_14_2
*3988 FILLER_14_241
*3989 FILLER_14_247
*3990 FILLER_14_311
*3991 FILLER_14_317
*3992 FILLER_14_34
*3993 FILLER_14_37
*3994 FILLER_14_381
*3995 FILLER_14_387
*3996 FILLER_14_451
*3997 FILLER_14_457
*3998 FILLER_14_521
*3999 FILLER_14_527
*4000 FILLER_14_591
*4001 FILLER_14_597
*4002 FILLER_14_661
*4003 FILLER_14_667
*4004 FILLER_14_731
*4005 FILLER_14_737
*4006 FILLER_14_801
*4007 FILLER_14_807
*4008 FILLER_14_871
*4009 FILLER_14_877
*4010 FILLER_14_941
*4011 FILLER_14_947
*4012 FILLER_150_1011
*4013 FILLER_150_1017
*4014 FILLER_150_103
*4015 FILLER_150_107
*4016 FILLER_150_1081
*4017 FILLER_150_1087
*4018 FILLER_150_1151
*4019 FILLER_150_1157
*4020 FILLER_150_1221
*4021 FILLER_150_1227
*4022 FILLER_150_1291
*4023 FILLER_150_1297
*4024 FILLER_150_1361
*4025 FILLER_150_1367
*4026 FILLER_150_1431
*4027 FILLER_150_1437
*4028 FILLER_150_1501
*4029 FILLER_150_1507
*4030 FILLER_150_1571
*4031 FILLER_150_1577
*4032 FILLER_150_1641
*4033 FILLER_150_1647
*4034 FILLER_150_171
*4035 FILLER_150_1711
*4036 FILLER_150_1717
*4037 FILLER_150_177
*4038 FILLER_150_1781
*4039 FILLER_150_1787
*4040 FILLER_150_1851
*4041 FILLER_150_1857
*4042 FILLER_150_1889
*4043 FILLER_150_1905
*4044 FILLER_150_1913
*4045 FILLER_150_1917
*4046 FILLER_150_1919
*4047 FILLER_150_1924
*4048 FILLER_150_1927
*4049 FILLER_150_1932
*4050 FILLER_150_2
*4051 FILLER_150_241
*4052 FILLER_150_247
*4053 FILLER_150_311
*4054 FILLER_150_317
*4055 FILLER_150_34
*4056 FILLER_150_37
*4057 FILLER_150_381
*4058 FILLER_150_387
*4059 FILLER_150_451
*4060 FILLER_150_457
*4061 FILLER_150_521
*4062 FILLER_150_527
*4063 FILLER_150_591
*4064 FILLER_150_597
*4065 FILLER_150_64
*4066 FILLER_150_661
*4067 FILLER_150_667
*4068 FILLER_150_72
*4069 FILLER_150_731
*4070 FILLER_150_737
*4071 FILLER_150_79
*4072 FILLER_150_801
*4073 FILLER_150_807
*4074 FILLER_150_871
*4075 FILLER_150_877
*4076 FILLER_150_941
*4077 FILLER_150_947
*4078 FILLER_150_95
*4079 FILLER_151_1046
*4080 FILLER_151_1052
*4081 FILLER_151_1116
*4082 FILLER_151_1122
*4083 FILLER_151_1186
*4084 FILLER_151_1192
*4085 FILLER_151_1256
*4086 FILLER_151_1262
*4087 FILLER_151_1326
*4088 FILLER_151_1332
*4089 FILLER_151_136
*4090 FILLER_151_1396
*4091 FILLER_151_1402
*4092 FILLER_151_142
*4093 FILLER_151_1466
*4094 FILLER_151_1472
*4095 FILLER_151_1536
*4096 FILLER_151_1542
*4097 FILLER_151_1606
*4098 FILLER_151_1612
*4099 FILLER_151_1676
*4100 FILLER_151_1682
*4101 FILLER_151_1746
*4102 FILLER_151_1752
*4103 FILLER_151_1816
*4104 FILLER_151_1822
*4105 FILLER_151_1886
*4106 FILLER_151_1892
*4107 FILLER_151_1908
*4108 FILLER_151_1916
*4109 FILLER_151_1920
*4110 FILLER_151_1926
*4111 FILLER_151_1932
*4112 FILLER_151_2
*4113 FILLER_151_206
*4114 FILLER_151_212
*4115 FILLER_151_276
*4116 FILLER_151_282
*4117 FILLER_151_34
*4118 FILLER_151_346
*4119 FILLER_151_352
*4120 FILLER_151_38
*4121 FILLER_151_416
*4122 FILLER_151_422
*4123 FILLER_151_486
*4124 FILLER_151_492
*4125 FILLER_151_556
*4126 FILLER_151_562
*4127 FILLER_151_626
*4128 FILLER_151_632
*4129 FILLER_151_64
*4130 FILLER_151_68
*4131 FILLER_151_696
*4132 FILLER_151_702
*4133 FILLER_151_72
*4134 FILLER_151_766
*4135 FILLER_151_772
*4136 FILLER_151_836
*4137 FILLER_151_842
*4138 FILLER_151_906
*4139 FILLER_151_912
*4140 FILLER_151_976
*4141 FILLER_151_982
*4142 FILLER_152_1011
*4143 FILLER_152_1017
*4144 FILLER_152_103
*4145 FILLER_152_107
*4146 FILLER_152_1081
*4147 FILLER_152_1087
*4148 FILLER_152_1151
*4149 FILLER_152_1157
*4150 FILLER_152_1221
*4151 FILLER_152_1227
*4152 FILLER_152_1291
*4153 FILLER_152_1297
*4154 FILLER_152_1361
*4155 FILLER_152_1367
*4156 FILLER_152_1431
*4157 FILLER_152_1437
*4158 FILLER_152_1501
*4159 FILLER_152_1507
*4160 FILLER_152_1571
*4161 FILLER_152_1577
*4162 FILLER_152_1641
*4163 FILLER_152_1647
*4164 FILLER_152_171
*4165 FILLER_152_1711
*4166 FILLER_152_1717
*4167 FILLER_152_177
*4168 FILLER_152_1781
*4169 FILLER_152_1787
*4170 FILLER_152_1851
*4171 FILLER_152_1857
*4172 FILLER_152_1921
*4173 FILLER_152_1927
*4174 FILLER_152_1932
*4175 FILLER_152_2
*4176 FILLER_152_241
*4177 FILLER_152_247
*4178 FILLER_152_311
*4179 FILLER_152_317
*4180 FILLER_152_34
*4181 FILLER_152_37
*4182 FILLER_152_381
*4183 FILLER_152_387
*4184 FILLER_152_451
*4185 FILLER_152_457
*4186 FILLER_152_521
*4187 FILLER_152_527
*4188 FILLER_152_591
*4189 FILLER_152_597
*4190 FILLER_152_63
*4191 FILLER_152_661
*4192 FILLER_152_667
*4193 FILLER_152_731
*4194 FILLER_152_737
*4195 FILLER_152_801
*4196 FILLER_152_807
*4197 FILLER_152_871
*4198 FILLER_152_877
*4199 FILLER_152_941
*4200 FILLER_152_947
*4201 FILLER_152_95
*4202 FILLER_153_1046
*4203 FILLER_153_1052
*4204 FILLER_153_1116
*4205 FILLER_153_1122
*4206 FILLER_153_1186
*4207 FILLER_153_1192
*4208 FILLER_153_1256
*4209 FILLER_153_1262
*4210 FILLER_153_1326
*4211 FILLER_153_1332
*4212 FILLER_153_136
*4213 FILLER_153_1396
*4214 FILLER_153_1402
*4215 FILLER_153_142
*4216 FILLER_153_1466
*4217 FILLER_153_1472
*4218 FILLER_153_1536
*4219 FILLER_153_1542
*4220 FILLER_153_1606
*4221 FILLER_153_1612
*4222 FILLER_153_1676
*4223 FILLER_153_1682
*4224 FILLER_153_1746
*4225 FILLER_153_1752
*4226 FILLER_153_1816
*4227 FILLER_153_1822
*4228 FILLER_153_1886
*4229 FILLER_153_1892
*4230 FILLER_153_1924
*4231 FILLER_153_1932
*4232 FILLER_153_1936
*4233 FILLER_153_2
*4234 FILLER_153_206
*4235 FILLER_153_212
*4236 FILLER_153_276
*4237 FILLER_153_282
*4238 FILLER_153_34
*4239 FILLER_153_346
*4240 FILLER_153_352
*4241 FILLER_153_38
*4242 FILLER_153_416
*4243 FILLER_153_422
*4244 FILLER_153_486
*4245 FILLER_153_492
*4246 FILLER_153_556
*4247 FILLER_153_562
*4248 FILLER_153_626
*4249 FILLER_153_632
*4250 FILLER_153_696
*4251 FILLER_153_702
*4252 FILLER_153_72
*4253 FILLER_153_766
*4254 FILLER_153_772
*4255 FILLER_153_836
*4256 FILLER_153_842
*4257 FILLER_153_906
*4258 FILLER_153_912
*4259 FILLER_153_976
*4260 FILLER_153_982
*4261 FILLER_154_101
*4262 FILLER_154_1011
*4263 FILLER_154_1017
*4264 FILLER_154_107
*4265 FILLER_154_1081
*4266 FILLER_154_1087
*4267 FILLER_154_1151
*4268 FILLER_154_1157
*4269 FILLER_154_1221
*4270 FILLER_154_1227
*4271 FILLER_154_1291
*4272 FILLER_154_1297
*4273 FILLER_154_1361
*4274 FILLER_154_1367
*4275 FILLER_154_1431
*4276 FILLER_154_1437
*4277 FILLER_154_1501
*4278 FILLER_154_1507
*4279 FILLER_154_1571
*4280 FILLER_154_1577
*4281 FILLER_154_1641
*4282 FILLER_154_1647
*4283 FILLER_154_171
*4284 FILLER_154_1711
*4285 FILLER_154_1717
*4286 FILLER_154_177
*4287 FILLER_154_1781
*4288 FILLER_154_1787
*4289 FILLER_154_1851
*4290 FILLER_154_1857
*4291 FILLER_154_1921
*4292 FILLER_154_1927
*4293 FILLER_154_1935
*4294 FILLER_154_1937
*4295 FILLER_154_2
*4296 FILLER_154_241
*4297 FILLER_154_247
*4298 FILLER_154_311
*4299 FILLER_154_317
*4300 FILLER_154_34
*4301 FILLER_154_37
*4302 FILLER_154_381
*4303 FILLER_154_387
*4304 FILLER_154_451
*4305 FILLER_154_457
*4306 FILLER_154_521
*4307 FILLER_154_527
*4308 FILLER_154_591
*4309 FILLER_154_597
*4310 FILLER_154_661
*4311 FILLER_154_667
*4312 FILLER_154_731
*4313 FILLER_154_737
*4314 FILLER_154_801
*4315 FILLER_154_807
*4316 FILLER_154_871
*4317 FILLER_154_877
*4318 FILLER_154_941
*4319 FILLER_154_947
*4320 FILLER_155_1046
*4321 FILLER_155_1052
*4322 FILLER_155_1116
*4323 FILLER_155_1122
*4324 FILLER_155_1186
*4325 FILLER_155_1192
*4326 FILLER_155_1256
*4327 FILLER_155_1262
*4328 FILLER_155_1326
*4329 FILLER_155_1332
*4330 FILLER_155_136
*4331 FILLER_155_1396
*4332 FILLER_155_1402
*4333 FILLER_155_142
*4334 FILLER_155_1466
*4335 FILLER_155_1472
*4336 FILLER_155_1536
*4337 FILLER_155_1542
*4338 FILLER_155_1606
*4339 FILLER_155_1612
*4340 FILLER_155_1676
*4341 FILLER_155_1682
*4342 FILLER_155_1746
*4343 FILLER_155_1752
*4344 FILLER_155_1816
*4345 FILLER_155_1822
*4346 FILLER_155_1886
*4347 FILLER_155_1892
*4348 FILLER_155_1924
*4349 FILLER_155_1932
*4350 FILLER_155_1936
*4351 FILLER_155_2
*4352 FILLER_155_206
*4353 FILLER_155_212
*4354 FILLER_155_276
*4355 FILLER_155_282
*4356 FILLER_155_346
*4357 FILLER_155_352
*4358 FILLER_155_416
*4359 FILLER_155_422
*4360 FILLER_155_486
*4361 FILLER_155_492
*4362 FILLER_155_556
*4363 FILLER_155_562
*4364 FILLER_155_626
*4365 FILLER_155_632
*4366 FILLER_155_66
*4367 FILLER_155_696
*4368 FILLER_155_702
*4369 FILLER_155_72
*4370 FILLER_155_766
*4371 FILLER_155_772
*4372 FILLER_155_836
*4373 FILLER_155_842
*4374 FILLER_155_906
*4375 FILLER_155_912
*4376 FILLER_155_976
*4377 FILLER_155_982
*4378 FILLER_156_101
*4379 FILLER_156_1011
*4380 FILLER_156_1017
*4381 FILLER_156_107
*4382 FILLER_156_1081
*4383 FILLER_156_1087
*4384 FILLER_156_1151
*4385 FILLER_156_1157
*4386 FILLER_156_1221
*4387 FILLER_156_1227
*4388 FILLER_156_1291
*4389 FILLER_156_1297
*4390 FILLER_156_1361
*4391 FILLER_156_1367
*4392 FILLER_156_1431
*4393 FILLER_156_1437
*4394 FILLER_156_1501
*4395 FILLER_156_1507
*4396 FILLER_156_1571
*4397 FILLER_156_1577
*4398 FILLER_156_1641
*4399 FILLER_156_1647
*4400 FILLER_156_171
*4401 FILLER_156_1711
*4402 FILLER_156_1717
*4403 FILLER_156_177
*4404 FILLER_156_1781
*4405 FILLER_156_1787
*4406 FILLER_156_1851
*4407 FILLER_156_1857
*4408 FILLER_156_1921
*4409 FILLER_156_1927
*4410 FILLER_156_1935
*4411 FILLER_156_1937
*4412 FILLER_156_2
*4413 FILLER_156_241
*4414 FILLER_156_247
*4415 FILLER_156_311
*4416 FILLER_156_317
*4417 FILLER_156_34
*4418 FILLER_156_37
*4419 FILLER_156_381
*4420 FILLER_156_387
*4421 FILLER_156_451
*4422 FILLER_156_457
*4423 FILLER_156_521
*4424 FILLER_156_527
*4425 FILLER_156_591
*4426 FILLER_156_597
*4427 FILLER_156_661
*4428 FILLER_156_667
*4429 FILLER_156_731
*4430 FILLER_156_737
*4431 FILLER_156_801
*4432 FILLER_156_807
*4433 FILLER_156_871
*4434 FILLER_156_877
*4435 FILLER_156_941
*4436 FILLER_156_947
*4437 FILLER_157_1046
*4438 FILLER_157_1052
*4439 FILLER_157_1116
*4440 FILLER_157_1122
*4441 FILLER_157_1186
*4442 FILLER_157_1192
*4443 FILLER_157_1256
*4444 FILLER_157_1262
*4445 FILLER_157_1326
*4446 FILLER_157_1332
*4447 FILLER_157_136
*4448 FILLER_157_1396
*4449 FILLER_157_1402
*4450 FILLER_157_142
*4451 FILLER_157_1466
*4452 FILLER_157_1472
*4453 FILLER_157_1536
*4454 FILLER_157_1542
*4455 FILLER_157_1606
*4456 FILLER_157_1612
*4457 FILLER_157_1676
*4458 FILLER_157_1682
*4459 FILLER_157_1746
*4460 FILLER_157_1752
*4461 FILLER_157_1816
*4462 FILLER_157_1822
*4463 FILLER_157_1886
*4464 FILLER_157_1892
*4465 FILLER_157_1924
*4466 FILLER_157_1932
*4467 FILLER_157_1936
*4468 FILLER_157_2
*4469 FILLER_157_206
*4470 FILLER_157_212
*4471 FILLER_157_276
*4472 FILLER_157_282
*4473 FILLER_157_346
*4474 FILLER_157_352
*4475 FILLER_157_416
*4476 FILLER_157_422
*4477 FILLER_157_486
*4478 FILLER_157_492
*4479 FILLER_157_556
*4480 FILLER_157_562
*4481 FILLER_157_626
*4482 FILLER_157_632
*4483 FILLER_157_66
*4484 FILLER_157_696
*4485 FILLER_157_702
*4486 FILLER_157_72
*4487 FILLER_157_766
*4488 FILLER_157_772
*4489 FILLER_157_836
*4490 FILLER_157_842
*4491 FILLER_157_906
*4492 FILLER_157_912
*4493 FILLER_157_976
*4494 FILLER_157_982
*4495 FILLER_158_101
*4496 FILLER_158_1011
*4497 FILLER_158_1017
*4498 FILLER_158_107
*4499 FILLER_158_1081
*4500 FILLER_158_1087
*4501 FILLER_158_1151
*4502 FILLER_158_1157
*4503 FILLER_158_1221
*4504 FILLER_158_1227
*4505 FILLER_158_1291
*4506 FILLER_158_1297
*4507 FILLER_158_1361
*4508 FILLER_158_1367
*4509 FILLER_158_1431
*4510 FILLER_158_1437
*4511 FILLER_158_1501
*4512 FILLER_158_1507
*4513 FILLER_158_1571
*4514 FILLER_158_1577
*4515 FILLER_158_1641
*4516 FILLER_158_1647
*4517 FILLER_158_171
*4518 FILLER_158_1711
*4519 FILLER_158_1717
*4520 FILLER_158_177
*4521 FILLER_158_1781
*4522 FILLER_158_1787
*4523 FILLER_158_1851
*4524 FILLER_158_1857
*4525 FILLER_158_1921
*4526 FILLER_158_1927
*4527 FILLER_158_1935
*4528 FILLER_158_1937
*4529 FILLER_158_2
*4530 FILLER_158_241
*4531 FILLER_158_247
*4532 FILLER_158_311
*4533 FILLER_158_317
*4534 FILLER_158_34
*4535 FILLER_158_37
*4536 FILLER_158_381
*4537 FILLER_158_387
*4538 FILLER_158_451
*4539 FILLER_158_457
*4540 FILLER_158_521
*4541 FILLER_158_527
*4542 FILLER_158_591
*4543 FILLER_158_597
*4544 FILLER_158_661
*4545 FILLER_158_667
*4546 FILLER_158_731
*4547 FILLER_158_737
*4548 FILLER_158_801
*4549 FILLER_158_807
*4550 FILLER_158_871
*4551 FILLER_158_877
*4552 FILLER_158_941
*4553 FILLER_158_947
*4554 FILLER_159_1046
*4555 FILLER_159_1052
*4556 FILLER_159_1116
*4557 FILLER_159_1122
*4558 FILLER_159_1186
*4559 FILLER_159_1192
*4560 FILLER_159_1256
*4561 FILLER_159_1262
*4562 FILLER_159_1326
*4563 FILLER_159_1332
*4564 FILLER_159_136
*4565 FILLER_159_1396
*4566 FILLER_159_1402
*4567 FILLER_159_142
*4568 FILLER_159_1466
*4569 FILLER_159_1472
*4570 FILLER_159_1536
*4571 FILLER_159_1542
*4572 FILLER_159_1606
*4573 FILLER_159_1612
*4574 FILLER_159_1676
*4575 FILLER_159_1682
*4576 FILLER_159_1746
*4577 FILLER_159_1752
*4578 FILLER_159_1816
*4579 FILLER_159_1822
*4580 FILLER_159_1886
*4581 FILLER_159_1892
*4582 FILLER_159_1924
*4583 FILLER_159_1932
*4584 FILLER_159_1936
*4585 FILLER_159_2
*4586 FILLER_159_206
*4587 FILLER_159_212
*4588 FILLER_159_276
*4589 FILLER_159_282
*4590 FILLER_159_346
*4591 FILLER_159_352
*4592 FILLER_159_416
*4593 FILLER_159_422
*4594 FILLER_159_486
*4595 FILLER_159_492
*4596 FILLER_159_556
*4597 FILLER_159_562
*4598 FILLER_159_626
*4599 FILLER_159_632
*4600 FILLER_159_66
*4601 FILLER_159_696
*4602 FILLER_159_702
*4603 FILLER_159_72
*4604 FILLER_159_766
*4605 FILLER_159_772
*4606 FILLER_159_836
*4607 FILLER_159_842
*4608 FILLER_159_906
*4609 FILLER_159_912
*4610 FILLER_159_976
*4611 FILLER_159_982
*4612 FILLER_15_1046
*4613 FILLER_15_1052
*4614 FILLER_15_1116
*4615 FILLER_15_1122
*4616 FILLER_15_1186
*4617 FILLER_15_1192
*4618 FILLER_15_1256
*4619 FILLER_15_1262
*4620 FILLER_15_1326
*4621 FILLER_15_1332
*4622 FILLER_15_136
*4623 FILLER_15_1396
*4624 FILLER_15_1402
*4625 FILLER_15_142
*4626 FILLER_15_1466
*4627 FILLER_15_1472
*4628 FILLER_15_1536
*4629 FILLER_15_1542
*4630 FILLER_15_1606
*4631 FILLER_15_1612
*4632 FILLER_15_1676
*4633 FILLER_15_1682
*4634 FILLER_15_1746
*4635 FILLER_15_1752
*4636 FILLER_15_1816
*4637 FILLER_15_1822
*4638 FILLER_15_1886
*4639 FILLER_15_1892
*4640 FILLER_15_1924
*4641 FILLER_15_1932
*4642 FILLER_15_1936
*4643 FILLER_15_2
*4644 FILLER_15_206
*4645 FILLER_15_212
*4646 FILLER_15_276
*4647 FILLER_15_282
*4648 FILLER_15_346
*4649 FILLER_15_352
*4650 FILLER_15_416
*4651 FILLER_15_422
*4652 FILLER_15_486
*4653 FILLER_15_492
*4654 FILLER_15_556
*4655 FILLER_15_562
*4656 FILLER_15_626
*4657 FILLER_15_632
*4658 FILLER_15_66
*4659 FILLER_15_696
*4660 FILLER_15_702
*4661 FILLER_15_72
*4662 FILLER_15_766
*4663 FILLER_15_772
*4664 FILLER_15_836
*4665 FILLER_15_842
*4666 FILLER_15_906
*4667 FILLER_15_912
*4668 FILLER_15_976
*4669 FILLER_15_982
*4670 FILLER_160_101
*4671 FILLER_160_1011
*4672 FILLER_160_1017
*4673 FILLER_160_107
*4674 FILLER_160_1081
*4675 FILLER_160_1087
*4676 FILLER_160_1151
*4677 FILLER_160_1157
*4678 FILLER_160_1221
*4679 FILLER_160_1227
*4680 FILLER_160_1291
*4681 FILLER_160_1297
*4682 FILLER_160_1361
*4683 FILLER_160_1367
*4684 FILLER_160_1431
*4685 FILLER_160_1437
*4686 FILLER_160_1501
*4687 FILLER_160_1507
*4688 FILLER_160_1571
*4689 FILLER_160_1577
*4690 FILLER_160_1641
*4691 FILLER_160_1647
*4692 FILLER_160_171
*4693 FILLER_160_1711
*4694 FILLER_160_1717
*4695 FILLER_160_177
*4696 FILLER_160_1781
*4697 FILLER_160_1787
*4698 FILLER_160_1851
*4699 FILLER_160_1857
*4700 FILLER_160_1921
*4701 FILLER_160_1927
*4702 FILLER_160_1935
*4703 FILLER_160_1937
*4704 FILLER_160_2
*4705 FILLER_160_241
*4706 FILLER_160_247
*4707 FILLER_160_311
*4708 FILLER_160_317
*4709 FILLER_160_34
*4710 FILLER_160_37
*4711 FILLER_160_381
*4712 FILLER_160_387
*4713 FILLER_160_451
*4714 FILLER_160_457
*4715 FILLER_160_521
*4716 FILLER_160_527
*4717 FILLER_160_591
*4718 FILLER_160_597
*4719 FILLER_160_661
*4720 FILLER_160_667
*4721 FILLER_160_731
*4722 FILLER_160_737
*4723 FILLER_160_801
*4724 FILLER_160_807
*4725 FILLER_160_871
*4726 FILLER_160_877
*4727 FILLER_160_941
*4728 FILLER_160_947
*4729 FILLER_161_1046
*4730 FILLER_161_1052
*4731 FILLER_161_1116
*4732 FILLER_161_1122
*4733 FILLER_161_1186
*4734 FILLER_161_1192
*4735 FILLER_161_1256
*4736 FILLER_161_1262
*4737 FILLER_161_1326
*4738 FILLER_161_1332
*4739 FILLER_161_136
*4740 FILLER_161_1396
*4741 FILLER_161_1402
*4742 FILLER_161_142
*4743 FILLER_161_1466
*4744 FILLER_161_1472
*4745 FILLER_161_1536
*4746 FILLER_161_1542
*4747 FILLER_161_1606
*4748 FILLER_161_1612
*4749 FILLER_161_1676
*4750 FILLER_161_1682
*4751 FILLER_161_1746
*4752 FILLER_161_1752
*4753 FILLER_161_1816
*4754 FILLER_161_1822
*4755 FILLER_161_1886
*4756 FILLER_161_1892
*4757 FILLER_161_1924
*4758 FILLER_161_1932
*4759 FILLER_161_1936
*4760 FILLER_161_2
*4761 FILLER_161_206
*4762 FILLER_161_212
*4763 FILLER_161_276
*4764 FILLER_161_282
*4765 FILLER_161_346
*4766 FILLER_161_352
*4767 FILLER_161_416
*4768 FILLER_161_422
*4769 FILLER_161_486
*4770 FILLER_161_492
*4771 FILLER_161_556
*4772 FILLER_161_562
*4773 FILLER_161_626
*4774 FILLER_161_632
*4775 FILLER_161_66
*4776 FILLER_161_696
*4777 FILLER_161_702
*4778 FILLER_161_72
*4779 FILLER_161_766
*4780 FILLER_161_772
*4781 FILLER_161_836
*4782 FILLER_161_842
*4783 FILLER_161_906
*4784 FILLER_161_912
*4785 FILLER_161_976
*4786 FILLER_161_982
*4787 FILLER_162_101
*4788 FILLER_162_1011
*4789 FILLER_162_1017
*4790 FILLER_162_107
*4791 FILLER_162_1081
*4792 FILLER_162_1087
*4793 FILLER_162_1151
*4794 FILLER_162_1157
*4795 FILLER_162_1221
*4796 FILLER_162_1227
*4797 FILLER_162_1291
*4798 FILLER_162_1297
*4799 FILLER_162_1361
*4800 FILLER_162_1367
*4801 FILLER_162_1431
*4802 FILLER_162_1437
*4803 FILLER_162_1501
*4804 FILLER_162_1507
*4805 FILLER_162_1571
*4806 FILLER_162_1577
*4807 FILLER_162_1641
*4808 FILLER_162_1647
*4809 FILLER_162_171
*4810 FILLER_162_1711
*4811 FILLER_162_1717
*4812 FILLER_162_177
*4813 FILLER_162_1781
*4814 FILLER_162_1787
*4815 FILLER_162_1851
*4816 FILLER_162_1857
*4817 FILLER_162_1921
*4818 FILLER_162_1927
*4819 FILLER_162_1935
*4820 FILLER_162_1937
*4821 FILLER_162_2
*4822 FILLER_162_241
*4823 FILLER_162_247
*4824 FILLER_162_311
*4825 FILLER_162_317
*4826 FILLER_162_34
*4827 FILLER_162_37
*4828 FILLER_162_381
*4829 FILLER_162_387
*4830 FILLER_162_451
*4831 FILLER_162_457
*4832 FILLER_162_521
*4833 FILLER_162_527
*4834 FILLER_162_591
*4835 FILLER_162_597
*4836 FILLER_162_661
*4837 FILLER_162_667
*4838 FILLER_162_731
*4839 FILLER_162_737
*4840 FILLER_162_801
*4841 FILLER_162_807
*4842 FILLER_162_871
*4843 FILLER_162_877
*4844 FILLER_162_941
*4845 FILLER_162_947
*4846 FILLER_163_1046
*4847 FILLER_163_1052
*4848 FILLER_163_1116
*4849 FILLER_163_1122
*4850 FILLER_163_1186
*4851 FILLER_163_1192
*4852 FILLER_163_1256
*4853 FILLER_163_1262
*4854 FILLER_163_1326
*4855 FILLER_163_1332
*4856 FILLER_163_136
*4857 FILLER_163_1396
*4858 FILLER_163_1402
*4859 FILLER_163_142
*4860 FILLER_163_1466
*4861 FILLER_163_1472
*4862 FILLER_163_1536
*4863 FILLER_163_1542
*4864 FILLER_163_1606
*4865 FILLER_163_1612
*4866 FILLER_163_1676
*4867 FILLER_163_1682
*4868 FILLER_163_1746
*4869 FILLER_163_1752
*4870 FILLER_163_1816
*4871 FILLER_163_1822
*4872 FILLER_163_1886
*4873 FILLER_163_1892
*4874 FILLER_163_1924
*4875 FILLER_163_1932
*4876 FILLER_163_1936
*4877 FILLER_163_2
*4878 FILLER_163_206
*4879 FILLER_163_212
*4880 FILLER_163_276
*4881 FILLER_163_282
*4882 FILLER_163_346
*4883 FILLER_163_352
*4884 FILLER_163_416
*4885 FILLER_163_422
*4886 FILLER_163_486
*4887 FILLER_163_492
*4888 FILLER_163_556
*4889 FILLER_163_562
*4890 FILLER_163_626
*4891 FILLER_163_632
*4892 FILLER_163_66
*4893 FILLER_163_696
*4894 FILLER_163_702
*4895 FILLER_163_72
*4896 FILLER_163_766
*4897 FILLER_163_772
*4898 FILLER_163_836
*4899 FILLER_163_842
*4900 FILLER_163_906
*4901 FILLER_163_912
*4902 FILLER_163_976
*4903 FILLER_163_982
*4904 FILLER_164_101
*4905 FILLER_164_1011
*4906 FILLER_164_1017
*4907 FILLER_164_107
*4908 FILLER_164_1081
*4909 FILLER_164_1087
*4910 FILLER_164_1151
*4911 FILLER_164_1157
*4912 FILLER_164_1221
*4913 FILLER_164_1227
*4914 FILLER_164_1291
*4915 FILLER_164_1297
*4916 FILLER_164_1361
*4917 FILLER_164_1367
*4918 FILLER_164_1431
*4919 FILLER_164_1437
*4920 FILLER_164_1501
*4921 FILLER_164_1507
*4922 FILLER_164_1571
*4923 FILLER_164_1577
*4924 FILLER_164_1641
*4925 FILLER_164_1647
*4926 FILLER_164_171
*4927 FILLER_164_1711
*4928 FILLER_164_1717
*4929 FILLER_164_177
*4930 FILLER_164_1781
*4931 FILLER_164_1787
*4932 FILLER_164_1851
*4933 FILLER_164_1857
*4934 FILLER_164_1921
*4935 FILLER_164_1927
*4936 FILLER_164_1935
*4937 FILLER_164_1937
*4938 FILLER_164_2
*4939 FILLER_164_241
*4940 FILLER_164_247
*4941 FILLER_164_311
*4942 FILLER_164_317
*4943 FILLER_164_34
*4944 FILLER_164_37
*4945 FILLER_164_381
*4946 FILLER_164_387
*4947 FILLER_164_451
*4948 FILLER_164_457
*4949 FILLER_164_521
*4950 FILLER_164_527
*4951 FILLER_164_591
*4952 FILLER_164_597
*4953 FILLER_164_661
*4954 FILLER_164_667
*4955 FILLER_164_731
*4956 FILLER_164_737
*4957 FILLER_164_801
*4958 FILLER_164_807
*4959 FILLER_164_871
*4960 FILLER_164_877
*4961 FILLER_164_941
*4962 FILLER_164_947
*4963 FILLER_165_1046
*4964 FILLER_165_1052
*4965 FILLER_165_1116
*4966 FILLER_165_1122
*4967 FILLER_165_1186
*4968 FILLER_165_1192
*4969 FILLER_165_1256
*4970 FILLER_165_1262
*4971 FILLER_165_1326
*4972 FILLER_165_1332
*4973 FILLER_165_136
*4974 FILLER_165_1396
*4975 FILLER_165_1402
*4976 FILLER_165_142
*4977 FILLER_165_1466
*4978 FILLER_165_1472
*4979 FILLER_165_1536
*4980 FILLER_165_1542
*4981 FILLER_165_1606
*4982 FILLER_165_1612
*4983 FILLER_165_1676
*4984 FILLER_165_1682
*4985 FILLER_165_1746
*4986 FILLER_165_1752
*4987 FILLER_165_1816
*4988 FILLER_165_1822
*4989 FILLER_165_1886
*4990 FILLER_165_1892
*4991 FILLER_165_1924
*4992 FILLER_165_1932
*4993 FILLER_165_1936
*4994 FILLER_165_2
*4995 FILLER_165_206
*4996 FILLER_165_212
*4997 FILLER_165_276
*4998 FILLER_165_282
*4999 FILLER_165_346
*5000 FILLER_165_352
*5001 FILLER_165_416
*5002 FILLER_165_422
*5003 FILLER_165_486
*5004 FILLER_165_492
*5005 FILLER_165_556
*5006 FILLER_165_562
*5007 FILLER_165_626
*5008 FILLER_165_632
*5009 FILLER_165_66
*5010 FILLER_165_696
*5011 FILLER_165_702
*5012 FILLER_165_72
*5013 FILLER_165_766
*5014 FILLER_165_772
*5015 FILLER_165_836
*5016 FILLER_165_842
*5017 FILLER_165_906
*5018 FILLER_165_912
*5019 FILLER_165_976
*5020 FILLER_165_982
*5021 FILLER_166_101
*5022 FILLER_166_1011
*5023 FILLER_166_1017
*5024 FILLER_166_107
*5025 FILLER_166_1081
*5026 FILLER_166_1087
*5027 FILLER_166_1151
*5028 FILLER_166_1157
*5029 FILLER_166_1221
*5030 FILLER_166_1227
*5031 FILLER_166_1291
*5032 FILLER_166_1297
*5033 FILLER_166_1361
*5034 FILLER_166_1367
*5035 FILLER_166_1431
*5036 FILLER_166_1437
*5037 FILLER_166_1501
*5038 FILLER_166_1507
*5039 FILLER_166_1571
*5040 FILLER_166_1577
*5041 FILLER_166_1641
*5042 FILLER_166_1647
*5043 FILLER_166_171
*5044 FILLER_166_1711
*5045 FILLER_166_1717
*5046 FILLER_166_177
*5047 FILLER_166_1781
*5048 FILLER_166_1787
*5049 FILLER_166_1851
*5050 FILLER_166_1857
*5051 FILLER_166_1921
*5052 FILLER_166_1927
*5053 FILLER_166_1935
*5054 FILLER_166_1937
*5055 FILLER_166_2
*5056 FILLER_166_241
*5057 FILLER_166_247
*5058 FILLER_166_311
*5059 FILLER_166_317
*5060 FILLER_166_34
*5061 FILLER_166_37
*5062 FILLER_166_381
*5063 FILLER_166_387
*5064 FILLER_166_451
*5065 FILLER_166_457
*5066 FILLER_166_521
*5067 FILLER_166_527
*5068 FILLER_166_591
*5069 FILLER_166_597
*5070 FILLER_166_661
*5071 FILLER_166_667
*5072 FILLER_166_731
*5073 FILLER_166_737
*5074 FILLER_166_801
*5075 FILLER_166_807
*5076 FILLER_166_871
*5077 FILLER_166_877
*5078 FILLER_166_941
*5079 FILLER_166_947
*5080 FILLER_167_1046
*5081 FILLER_167_1052
*5082 FILLER_167_1116
*5083 FILLER_167_1122
*5084 FILLER_167_1186
*5085 FILLER_167_1192
*5086 FILLER_167_1256
*5087 FILLER_167_1262
*5088 FILLER_167_1326
*5089 FILLER_167_1332
*5090 FILLER_167_136
*5091 FILLER_167_1396
*5092 FILLER_167_1402
*5093 FILLER_167_142
*5094 FILLER_167_1466
*5095 FILLER_167_1472
*5096 FILLER_167_1536
*5097 FILLER_167_1542
*5098 FILLER_167_1606
*5099 FILLER_167_1612
*5100 FILLER_167_1676
*5101 FILLER_167_1682
*5102 FILLER_167_1746
*5103 FILLER_167_1752
*5104 FILLER_167_1816
*5105 FILLER_167_1822
*5106 FILLER_167_1886
*5107 FILLER_167_1892
*5108 FILLER_167_1924
*5109 FILLER_167_1932
*5110 FILLER_167_1936
*5111 FILLER_167_2
*5112 FILLER_167_206
*5113 FILLER_167_212
*5114 FILLER_167_276
*5115 FILLER_167_282
*5116 FILLER_167_346
*5117 FILLER_167_352
*5118 FILLER_167_416
*5119 FILLER_167_422
*5120 FILLER_167_486
*5121 FILLER_167_492
*5122 FILLER_167_556
*5123 FILLER_167_562
*5124 FILLER_167_626
*5125 FILLER_167_632
*5126 FILLER_167_66
*5127 FILLER_167_696
*5128 FILLER_167_702
*5129 FILLER_167_72
*5130 FILLER_167_766
*5131 FILLER_167_772
*5132 FILLER_167_836
*5133 FILLER_167_842
*5134 FILLER_167_906
*5135 FILLER_167_912
*5136 FILLER_167_976
*5137 FILLER_167_982
*5138 FILLER_168_101
*5139 FILLER_168_1011
*5140 FILLER_168_1017
*5141 FILLER_168_107
*5142 FILLER_168_1081
*5143 FILLER_168_1087
*5144 FILLER_168_1151
*5145 FILLER_168_1157
*5146 FILLER_168_1221
*5147 FILLER_168_1227
*5148 FILLER_168_1291
*5149 FILLER_168_1297
*5150 FILLER_168_1361
*5151 FILLER_168_1367
*5152 FILLER_168_1431
*5153 FILLER_168_1437
*5154 FILLER_168_1501
*5155 FILLER_168_1507
*5156 FILLER_168_1571
*5157 FILLER_168_1577
*5158 FILLER_168_1641
*5159 FILLER_168_1647
*5160 FILLER_168_171
*5161 FILLER_168_1711
*5162 FILLER_168_1717
*5163 FILLER_168_177
*5164 FILLER_168_1781
*5165 FILLER_168_1787
*5166 FILLER_168_1851
*5167 FILLER_168_1857
*5168 FILLER_168_1921
*5169 FILLER_168_1927
*5170 FILLER_168_1935
*5171 FILLER_168_1937
*5172 FILLER_168_2
*5173 FILLER_168_241
*5174 FILLER_168_247
*5175 FILLER_168_311
*5176 FILLER_168_317
*5177 FILLER_168_34
*5178 FILLER_168_37
*5179 FILLER_168_381
*5180 FILLER_168_387
*5181 FILLER_168_451
*5182 FILLER_168_457
*5183 FILLER_168_521
*5184 FILLER_168_527
*5185 FILLER_168_591
*5186 FILLER_168_597
*5187 FILLER_168_661
*5188 FILLER_168_667
*5189 FILLER_168_731
*5190 FILLER_168_737
*5191 FILLER_168_801
*5192 FILLER_168_807
*5193 FILLER_168_871
*5194 FILLER_168_877
*5195 FILLER_168_941
*5196 FILLER_168_947
*5197 FILLER_169_1046
*5198 FILLER_169_1052
*5199 FILLER_169_1116
*5200 FILLER_169_1122
*5201 FILLER_169_1186
*5202 FILLER_169_1192
*5203 FILLER_169_1256
*5204 FILLER_169_1262
*5205 FILLER_169_1326
*5206 FILLER_169_1332
*5207 FILLER_169_136
*5208 FILLER_169_1396
*5209 FILLER_169_1402
*5210 FILLER_169_142
*5211 FILLER_169_1466
*5212 FILLER_169_1472
*5213 FILLER_169_1536
*5214 FILLER_169_1542
*5215 FILLER_169_1606
*5216 FILLER_169_1612
*5217 FILLER_169_1676
*5218 FILLER_169_1682
*5219 FILLER_169_1746
*5220 FILLER_169_1752
*5221 FILLER_169_1816
*5222 FILLER_169_1822
*5223 FILLER_169_1886
*5224 FILLER_169_1892
*5225 FILLER_169_1924
*5226 FILLER_169_1932
*5227 FILLER_169_1936
*5228 FILLER_169_2
*5229 FILLER_169_206
*5230 FILLER_169_212
*5231 FILLER_169_276
*5232 FILLER_169_282
*5233 FILLER_169_346
*5234 FILLER_169_352
*5235 FILLER_169_416
*5236 FILLER_169_422
*5237 FILLER_169_486
*5238 FILLER_169_492
*5239 FILLER_169_556
*5240 FILLER_169_562
*5241 FILLER_169_626
*5242 FILLER_169_632
*5243 FILLER_169_66
*5244 FILLER_169_696
*5245 FILLER_169_702
*5246 FILLER_169_72
*5247 FILLER_169_766
*5248 FILLER_169_772
*5249 FILLER_169_836
*5250 FILLER_169_842
*5251 FILLER_169_906
*5252 FILLER_169_912
*5253 FILLER_169_976
*5254 FILLER_169_982
*5255 FILLER_16_101
*5256 FILLER_16_1011
*5257 FILLER_16_1017
*5258 FILLER_16_107
*5259 FILLER_16_1081
*5260 FILLER_16_1087
*5261 FILLER_16_1151
*5262 FILLER_16_1157
*5263 FILLER_16_1221
*5264 FILLER_16_1227
*5265 FILLER_16_1291
*5266 FILLER_16_1297
*5267 FILLER_16_1361
*5268 FILLER_16_1367
*5269 FILLER_16_1431
*5270 FILLER_16_1437
*5271 FILLER_16_1501
*5272 FILLER_16_1507
*5273 FILLER_16_1571
*5274 FILLER_16_1577
*5275 FILLER_16_1641
*5276 FILLER_16_1647
*5277 FILLER_16_171
*5278 FILLER_16_1711
*5279 FILLER_16_1717
*5280 FILLER_16_177
*5281 FILLER_16_1781
*5282 FILLER_16_1787
*5283 FILLER_16_1851
*5284 FILLER_16_1857
*5285 FILLER_16_1921
*5286 FILLER_16_1927
*5287 FILLER_16_1935
*5288 FILLER_16_1937
*5289 FILLER_16_2
*5290 FILLER_16_241
*5291 FILLER_16_247
*5292 FILLER_16_311
*5293 FILLER_16_317
*5294 FILLER_16_34
*5295 FILLER_16_37
*5296 FILLER_16_381
*5297 FILLER_16_387
*5298 FILLER_16_451
*5299 FILLER_16_457
*5300 FILLER_16_521
*5301 FILLER_16_527
*5302 FILLER_16_591
*5303 FILLER_16_597
*5304 FILLER_16_661
*5305 FILLER_16_667
*5306 FILLER_16_731
*5307 FILLER_16_737
*5308 FILLER_16_801
*5309 FILLER_16_807
*5310 FILLER_16_871
*5311 FILLER_16_877
*5312 FILLER_16_941
*5313 FILLER_16_947
*5314 FILLER_170_101
*5315 FILLER_170_1011
*5316 FILLER_170_1017
*5317 FILLER_170_107
*5318 FILLER_170_1081
*5319 FILLER_170_1087
*5320 FILLER_170_1151
*5321 FILLER_170_1157
*5322 FILLER_170_1221
*5323 FILLER_170_1227
*5324 FILLER_170_1291
*5325 FILLER_170_1297
*5326 FILLER_170_1361
*5327 FILLER_170_1367
*5328 FILLER_170_1431
*5329 FILLER_170_1437
*5330 FILLER_170_1501
*5331 FILLER_170_1507
*5332 FILLER_170_1571
*5333 FILLER_170_1577
*5334 FILLER_170_1641
*5335 FILLER_170_1647
*5336 FILLER_170_171
*5337 FILLER_170_1711
*5338 FILLER_170_1717
*5339 FILLER_170_177
*5340 FILLER_170_1781
*5341 FILLER_170_1787
*5342 FILLER_170_1851
*5343 FILLER_170_1857
*5344 FILLER_170_1921
*5345 FILLER_170_1927
*5346 FILLER_170_1935
*5347 FILLER_170_1937
*5348 FILLER_170_2
*5349 FILLER_170_241
*5350 FILLER_170_247
*5351 FILLER_170_311
*5352 FILLER_170_317
*5353 FILLER_170_34
*5354 FILLER_170_37
*5355 FILLER_170_381
*5356 FILLER_170_387
*5357 FILLER_170_451
*5358 FILLER_170_457
*5359 FILLER_170_521
*5360 FILLER_170_527
*5361 FILLER_170_591
*5362 FILLER_170_597
*5363 FILLER_170_661
*5364 FILLER_170_667
*5365 FILLER_170_731
*5366 FILLER_170_737
*5367 FILLER_170_801
*5368 FILLER_170_807
*5369 FILLER_170_871
*5370 FILLER_170_877
*5371 FILLER_170_941
*5372 FILLER_170_947
*5373 FILLER_171_1046
*5374 FILLER_171_1052
*5375 FILLER_171_1116
*5376 FILLER_171_1122
*5377 FILLER_171_1186
*5378 FILLER_171_1192
*5379 FILLER_171_1256
*5380 FILLER_171_1262
*5381 FILLER_171_1326
*5382 FILLER_171_1332
*5383 FILLER_171_136
*5384 FILLER_171_1396
*5385 FILLER_171_1402
*5386 FILLER_171_142
*5387 FILLER_171_1466
*5388 FILLER_171_1472
*5389 FILLER_171_1536
*5390 FILLER_171_1542
*5391 FILLER_171_1606
*5392 FILLER_171_1612
*5393 FILLER_171_1676
*5394 FILLER_171_1682
*5395 FILLER_171_1746
*5396 FILLER_171_1752
*5397 FILLER_171_1816
*5398 FILLER_171_1822
*5399 FILLER_171_1886
*5400 FILLER_171_1892
*5401 FILLER_171_1924
*5402 FILLER_171_1932
*5403 FILLER_171_1936
*5404 FILLER_171_2
*5405 FILLER_171_206
*5406 FILLER_171_212
*5407 FILLER_171_276
*5408 FILLER_171_282
*5409 FILLER_171_346
*5410 FILLER_171_352
*5411 FILLER_171_416
*5412 FILLER_171_422
*5413 FILLER_171_486
*5414 FILLER_171_492
*5415 FILLER_171_556
*5416 FILLER_171_562
*5417 FILLER_171_626
*5418 FILLER_171_632
*5419 FILLER_171_66
*5420 FILLER_171_696
*5421 FILLER_171_702
*5422 FILLER_171_72
*5423 FILLER_171_766
*5424 FILLER_171_772
*5425 FILLER_171_836
*5426 FILLER_171_842
*5427 FILLER_171_906
*5428 FILLER_171_912
*5429 FILLER_171_976
*5430 FILLER_171_982
*5431 FILLER_172_101
*5432 FILLER_172_1011
*5433 FILLER_172_1017
*5434 FILLER_172_107
*5435 FILLER_172_1081
*5436 FILLER_172_1087
*5437 FILLER_172_1151
*5438 FILLER_172_1157
*5439 FILLER_172_1221
*5440 FILLER_172_1227
*5441 FILLER_172_1291
*5442 FILLER_172_1297
*5443 FILLER_172_1361
*5444 FILLER_172_1367
*5445 FILLER_172_1431
*5446 FILLER_172_1437
*5447 FILLER_172_1501
*5448 FILLER_172_1507
*5449 FILLER_172_1571
*5450 FILLER_172_1577
*5451 FILLER_172_1641
*5452 FILLER_172_1647
*5453 FILLER_172_171
*5454 FILLER_172_1711
*5455 FILLER_172_1717
*5456 FILLER_172_177
*5457 FILLER_172_1781
*5458 FILLER_172_1787
*5459 FILLER_172_1851
*5460 FILLER_172_1857
*5461 FILLER_172_1921
*5462 FILLER_172_1927
*5463 FILLER_172_1935
*5464 FILLER_172_1937
*5465 FILLER_172_2
*5466 FILLER_172_241
*5467 FILLER_172_247
*5468 FILLER_172_311
*5469 FILLER_172_317
*5470 FILLER_172_34
*5471 FILLER_172_37
*5472 FILLER_172_381
*5473 FILLER_172_387
*5474 FILLER_172_451
*5475 FILLER_172_457
*5476 FILLER_172_521
*5477 FILLER_172_527
*5478 FILLER_172_591
*5479 FILLER_172_597
*5480 FILLER_172_661
*5481 FILLER_172_667
*5482 FILLER_172_731
*5483 FILLER_172_737
*5484 FILLER_172_801
*5485 FILLER_172_807
*5486 FILLER_172_871
*5487 FILLER_172_877
*5488 FILLER_172_941
*5489 FILLER_172_947
*5490 FILLER_173_1046
*5491 FILLER_173_1052
*5492 FILLER_173_1116
*5493 FILLER_173_1122
*5494 FILLER_173_1186
*5495 FILLER_173_1192
*5496 FILLER_173_1256
*5497 FILLER_173_1262
*5498 FILLER_173_1326
*5499 FILLER_173_1332
*5500 FILLER_173_136
*5501 FILLER_173_1396
*5502 FILLER_173_1402
*5503 FILLER_173_142
*5504 FILLER_173_1466
*5505 FILLER_173_1472
*5506 FILLER_173_1536
*5507 FILLER_173_1542
*5508 FILLER_173_1606
*5509 FILLER_173_1612
*5510 FILLER_173_1676
*5511 FILLER_173_1682
*5512 FILLER_173_1746
*5513 FILLER_173_1752
*5514 FILLER_173_1816
*5515 FILLER_173_1822
*5516 FILLER_173_1886
*5517 FILLER_173_1892
*5518 FILLER_173_1924
*5519 FILLER_173_1932
*5520 FILLER_173_1936
*5521 FILLER_173_2
*5522 FILLER_173_206
*5523 FILLER_173_212
*5524 FILLER_173_276
*5525 FILLER_173_282
*5526 FILLER_173_346
*5527 FILLER_173_352
*5528 FILLER_173_416
*5529 FILLER_173_422
*5530 FILLER_173_486
*5531 FILLER_173_492
*5532 FILLER_173_556
*5533 FILLER_173_562
*5534 FILLER_173_626
*5535 FILLER_173_632
*5536 FILLER_173_66
*5537 FILLER_173_696
*5538 FILLER_173_702
*5539 FILLER_173_72
*5540 FILLER_173_766
*5541 FILLER_173_772
*5542 FILLER_173_836
*5543 FILLER_173_842
*5544 FILLER_173_906
*5545 FILLER_173_912
*5546 FILLER_173_976
*5547 FILLER_173_982
*5548 FILLER_174_101
*5549 FILLER_174_1011
*5550 FILLER_174_1017
*5551 FILLER_174_107
*5552 FILLER_174_1081
*5553 FILLER_174_1087
*5554 FILLER_174_1151
*5555 FILLER_174_1157
*5556 FILLER_174_1221
*5557 FILLER_174_1227
*5558 FILLER_174_1291
*5559 FILLER_174_1297
*5560 FILLER_174_1361
*5561 FILLER_174_1367
*5562 FILLER_174_1431
*5563 FILLER_174_1437
*5564 FILLER_174_1501
*5565 FILLER_174_1507
*5566 FILLER_174_1571
*5567 FILLER_174_1577
*5568 FILLER_174_1641
*5569 FILLER_174_1647
*5570 FILLER_174_171
*5571 FILLER_174_1711
*5572 FILLER_174_1717
*5573 FILLER_174_177
*5574 FILLER_174_1781
*5575 FILLER_174_1787
*5576 FILLER_174_1851
*5577 FILLER_174_1857
*5578 FILLER_174_1921
*5579 FILLER_174_1927
*5580 FILLER_174_1935
*5581 FILLER_174_1937
*5582 FILLER_174_2
*5583 FILLER_174_241
*5584 FILLER_174_247
*5585 FILLER_174_311
*5586 FILLER_174_317
*5587 FILLER_174_34
*5588 FILLER_174_37
*5589 FILLER_174_381
*5590 FILLER_174_387
*5591 FILLER_174_451
*5592 FILLER_174_457
*5593 FILLER_174_521
*5594 FILLER_174_527
*5595 FILLER_174_591
*5596 FILLER_174_597
*5597 FILLER_174_661
*5598 FILLER_174_667
*5599 FILLER_174_731
*5600 FILLER_174_737
*5601 FILLER_174_801
*5602 FILLER_174_807
*5603 FILLER_174_871
*5604 FILLER_174_877
*5605 FILLER_174_941
*5606 FILLER_174_947
*5607 FILLER_175_1046
*5608 FILLER_175_1052
*5609 FILLER_175_1116
*5610 FILLER_175_1122
*5611 FILLER_175_1186
*5612 FILLER_175_1192
*5613 FILLER_175_1256
*5614 FILLER_175_1262
*5615 FILLER_175_1326
*5616 FILLER_175_1332
*5617 FILLER_175_136
*5618 FILLER_175_1396
*5619 FILLER_175_1402
*5620 FILLER_175_142
*5621 FILLER_175_1466
*5622 FILLER_175_1472
*5623 FILLER_175_1536
*5624 FILLER_175_1542
*5625 FILLER_175_1606
*5626 FILLER_175_1612
*5627 FILLER_175_1676
*5628 FILLER_175_1682
*5629 FILLER_175_1746
*5630 FILLER_175_1752
*5631 FILLER_175_1816
*5632 FILLER_175_1822
*5633 FILLER_175_1886
*5634 FILLER_175_1892
*5635 FILLER_175_1924
*5636 FILLER_175_1932
*5637 FILLER_175_1936
*5638 FILLER_175_2
*5639 FILLER_175_206
*5640 FILLER_175_212
*5641 FILLER_175_276
*5642 FILLER_175_282
*5643 FILLER_175_346
*5644 FILLER_175_352
*5645 FILLER_175_416
*5646 FILLER_175_422
*5647 FILLER_175_486
*5648 FILLER_175_492
*5649 FILLER_175_556
*5650 FILLER_175_562
*5651 FILLER_175_626
*5652 FILLER_175_632
*5653 FILLER_175_66
*5654 FILLER_175_696
*5655 FILLER_175_702
*5656 FILLER_175_72
*5657 FILLER_175_766
*5658 FILLER_175_772
*5659 FILLER_175_836
*5660 FILLER_175_842
*5661 FILLER_175_906
*5662 FILLER_175_912
*5663 FILLER_175_976
*5664 FILLER_175_982
*5665 FILLER_176_101
*5666 FILLER_176_1011
*5667 FILLER_176_1017
*5668 FILLER_176_107
*5669 FILLER_176_1081
*5670 FILLER_176_1087
*5671 FILLER_176_1151
*5672 FILLER_176_1157
*5673 FILLER_176_1221
*5674 FILLER_176_1227
*5675 FILLER_176_1291
*5676 FILLER_176_1297
*5677 FILLER_176_1361
*5678 FILLER_176_1367
*5679 FILLER_176_1431
*5680 FILLER_176_1437
*5681 FILLER_176_1501
*5682 FILLER_176_1507
*5683 FILLER_176_1571
*5684 FILLER_176_1577
*5685 FILLER_176_1641
*5686 FILLER_176_1647
*5687 FILLER_176_171
*5688 FILLER_176_1711
*5689 FILLER_176_1717
*5690 FILLER_176_177
*5691 FILLER_176_1781
*5692 FILLER_176_1787
*5693 FILLER_176_1851
*5694 FILLER_176_1857
*5695 FILLER_176_1921
*5696 FILLER_176_1927
*5697 FILLER_176_1935
*5698 FILLER_176_1937
*5699 FILLER_176_2
*5700 FILLER_176_241
*5701 FILLER_176_247
*5702 FILLER_176_311
*5703 FILLER_176_317
*5704 FILLER_176_34
*5705 FILLER_176_37
*5706 FILLER_176_381
*5707 FILLER_176_387
*5708 FILLER_176_451
*5709 FILLER_176_457
*5710 FILLER_176_521
*5711 FILLER_176_527
*5712 FILLER_176_591
*5713 FILLER_176_597
*5714 FILLER_176_661
*5715 FILLER_176_667
*5716 FILLER_176_731
*5717 FILLER_176_737
*5718 FILLER_176_801
*5719 FILLER_176_807
*5720 FILLER_176_871
*5721 FILLER_176_877
*5722 FILLER_176_941
*5723 FILLER_176_947
*5724 FILLER_177_1046
*5725 FILLER_177_1052
*5726 FILLER_177_1116
*5727 FILLER_177_1122
*5728 FILLER_177_1186
*5729 FILLER_177_1192
*5730 FILLER_177_1256
*5731 FILLER_177_1262
*5732 FILLER_177_1326
*5733 FILLER_177_1332
*5734 FILLER_177_136
*5735 FILLER_177_1396
*5736 FILLER_177_1402
*5737 FILLER_177_142
*5738 FILLER_177_1466
*5739 FILLER_177_1472
*5740 FILLER_177_1536
*5741 FILLER_177_1542
*5742 FILLER_177_1606
*5743 FILLER_177_1612
*5744 FILLER_177_1676
*5745 FILLER_177_1682
*5746 FILLER_177_1746
*5747 FILLER_177_1752
*5748 FILLER_177_1816
*5749 FILLER_177_1822
*5750 FILLER_177_1886
*5751 FILLER_177_1892
*5752 FILLER_177_1924
*5753 FILLER_177_1932
*5754 FILLER_177_1936
*5755 FILLER_177_2
*5756 FILLER_177_206
*5757 FILLER_177_212
*5758 FILLER_177_276
*5759 FILLER_177_282
*5760 FILLER_177_346
*5761 FILLER_177_352
*5762 FILLER_177_416
*5763 FILLER_177_422
*5764 FILLER_177_486
*5765 FILLER_177_492
*5766 FILLER_177_556
*5767 FILLER_177_562
*5768 FILLER_177_626
*5769 FILLER_177_632
*5770 FILLER_177_66
*5771 FILLER_177_696
*5772 FILLER_177_702
*5773 FILLER_177_72
*5774 FILLER_177_766
*5775 FILLER_177_772
*5776 FILLER_177_836
*5777 FILLER_177_842
*5778 FILLER_177_906
*5779 FILLER_177_912
*5780 FILLER_177_976
*5781 FILLER_177_982
*5782 FILLER_178_101
*5783 FILLER_178_1011
*5784 FILLER_178_1017
*5785 FILLER_178_107
*5786 FILLER_178_1081
*5787 FILLER_178_1087
*5788 FILLER_178_1151
*5789 FILLER_178_1157
*5790 FILLER_178_1221
*5791 FILLER_178_1227
*5792 FILLER_178_1291
*5793 FILLER_178_1297
*5794 FILLER_178_1361
*5795 FILLER_178_1367
*5796 FILLER_178_1431
*5797 FILLER_178_1437
*5798 FILLER_178_1501
*5799 FILLER_178_1507
*5800 FILLER_178_1571
*5801 FILLER_178_1577
*5802 FILLER_178_1641
*5803 FILLER_178_1647
*5804 FILLER_178_171
*5805 FILLER_178_1711
*5806 FILLER_178_1717
*5807 FILLER_178_177
*5808 FILLER_178_1781
*5809 FILLER_178_1787
*5810 FILLER_178_1851
*5811 FILLER_178_1857
*5812 FILLER_178_1921
*5813 FILLER_178_1927
*5814 FILLER_178_1935
*5815 FILLER_178_1937
*5816 FILLER_178_2
*5817 FILLER_178_241
*5818 FILLER_178_247
*5819 FILLER_178_311
*5820 FILLER_178_317
*5821 FILLER_178_34
*5822 FILLER_178_37
*5823 FILLER_178_381
*5824 FILLER_178_387
*5825 FILLER_178_451
*5826 FILLER_178_457
*5827 FILLER_178_521
*5828 FILLER_178_527
*5829 FILLER_178_591
*5830 FILLER_178_597
*5831 FILLER_178_661
*5832 FILLER_178_667
*5833 FILLER_178_731
*5834 FILLER_178_737
*5835 FILLER_178_801
*5836 FILLER_178_807
*5837 FILLER_178_871
*5838 FILLER_178_877
*5839 FILLER_178_941
*5840 FILLER_178_947
*5841 FILLER_179_1046
*5842 FILLER_179_1052
*5843 FILLER_179_1116
*5844 FILLER_179_1122
*5845 FILLER_179_1186
*5846 FILLER_179_1192
*5847 FILLER_179_1256
*5848 FILLER_179_1262
*5849 FILLER_179_1326
*5850 FILLER_179_1332
*5851 FILLER_179_136
*5852 FILLER_179_1396
*5853 FILLER_179_1402
*5854 FILLER_179_142
*5855 FILLER_179_1466
*5856 FILLER_179_1472
*5857 FILLER_179_1536
*5858 FILLER_179_1542
*5859 FILLER_179_1606
*5860 FILLER_179_1612
*5861 FILLER_179_1676
*5862 FILLER_179_1682
*5863 FILLER_179_1746
*5864 FILLER_179_1752
*5865 FILLER_179_1816
*5866 FILLER_179_1822
*5867 FILLER_179_1886
*5868 FILLER_179_1892
*5869 FILLER_179_1924
*5870 FILLER_179_1932
*5871 FILLER_179_1936
*5872 FILLER_179_2
*5873 FILLER_179_206
*5874 FILLER_179_212
*5875 FILLER_179_276
*5876 FILLER_179_282
*5877 FILLER_179_346
*5878 FILLER_179_352
*5879 FILLER_179_416
*5880 FILLER_179_422
*5881 FILLER_179_486
*5882 FILLER_179_492
*5883 FILLER_179_556
*5884 FILLER_179_562
*5885 FILLER_179_626
*5886 FILLER_179_632
*5887 FILLER_179_66
*5888 FILLER_179_696
*5889 FILLER_179_702
*5890 FILLER_179_72
*5891 FILLER_179_766
*5892 FILLER_179_772
*5893 FILLER_179_836
*5894 FILLER_179_842
*5895 FILLER_179_906
*5896 FILLER_179_912
*5897 FILLER_179_976
*5898 FILLER_179_982
*5899 FILLER_17_1046
*5900 FILLER_17_1052
*5901 FILLER_17_1116
*5902 FILLER_17_1122
*5903 FILLER_17_1186
*5904 FILLER_17_1192
*5905 FILLER_17_1256
*5906 FILLER_17_1262
*5907 FILLER_17_1326
*5908 FILLER_17_1332
*5909 FILLER_17_136
*5910 FILLER_17_1396
*5911 FILLER_17_1402
*5912 FILLER_17_142
*5913 FILLER_17_1466
*5914 FILLER_17_1472
*5915 FILLER_17_1536
*5916 FILLER_17_1542
*5917 FILLER_17_1606
*5918 FILLER_17_1612
*5919 FILLER_17_1676
*5920 FILLER_17_1682
*5921 FILLER_17_1746
*5922 FILLER_17_1752
*5923 FILLER_17_1816
*5924 FILLER_17_1822
*5925 FILLER_17_1886
*5926 FILLER_17_1892
*5927 FILLER_17_1924
*5928 FILLER_17_1932
*5929 FILLER_17_1936
*5930 FILLER_17_2
*5931 FILLER_17_206
*5932 FILLER_17_212
*5933 FILLER_17_276
*5934 FILLER_17_282
*5935 FILLER_17_346
*5936 FILLER_17_352
*5937 FILLER_17_416
*5938 FILLER_17_422
*5939 FILLER_17_486
*5940 FILLER_17_492
*5941 FILLER_17_556
*5942 FILLER_17_562
*5943 FILLER_17_626
*5944 FILLER_17_632
*5945 FILLER_17_66
*5946 FILLER_17_696
*5947 FILLER_17_702
*5948 FILLER_17_72
*5949 FILLER_17_766
*5950 FILLER_17_772
*5951 FILLER_17_836
*5952 FILLER_17_842
*5953 FILLER_17_906
*5954 FILLER_17_912
*5955 FILLER_17_976
*5956 FILLER_17_982
*5957 FILLER_180_101
*5958 FILLER_180_1011
*5959 FILLER_180_1017
*5960 FILLER_180_107
*5961 FILLER_180_1081
*5962 FILLER_180_1087
*5963 FILLER_180_1151
*5964 FILLER_180_1157
*5965 FILLER_180_1221
*5966 FILLER_180_1227
*5967 FILLER_180_1291
*5968 FILLER_180_1297
*5969 FILLER_180_1361
*5970 FILLER_180_1367
*5971 FILLER_180_1431
*5972 FILLER_180_1437
*5973 FILLER_180_1501
*5974 FILLER_180_1507
*5975 FILLER_180_1571
*5976 FILLER_180_1577
*5977 FILLER_180_1641
*5978 FILLER_180_1647
*5979 FILLER_180_171
*5980 FILLER_180_1711
*5981 FILLER_180_1717
*5982 FILLER_180_177
*5983 FILLER_180_1781
*5984 FILLER_180_1787
*5985 FILLER_180_1851
*5986 FILLER_180_1857
*5987 FILLER_180_1921
*5988 FILLER_180_1927
*5989 FILLER_180_1935
*5990 FILLER_180_1937
*5991 FILLER_180_2
*5992 FILLER_180_241
*5993 FILLER_180_247
*5994 FILLER_180_311
*5995 FILLER_180_317
*5996 FILLER_180_34
*5997 FILLER_180_37
*5998 FILLER_180_381
*5999 FILLER_180_387
*6000 FILLER_180_451
*6001 FILLER_180_457
*6002 FILLER_180_521
*6003 FILLER_180_527
*6004 FILLER_180_591
*6005 FILLER_180_597
*6006 FILLER_180_661
*6007 FILLER_180_667
*6008 FILLER_180_731
*6009 FILLER_180_737
*6010 FILLER_180_801
*6011 FILLER_180_807
*6012 FILLER_180_871
*6013 FILLER_180_877
*6014 FILLER_180_941
*6015 FILLER_180_947
*6016 FILLER_181_1046
*6017 FILLER_181_1052
*6018 FILLER_181_1116
*6019 FILLER_181_1122
*6020 FILLER_181_1186
*6021 FILLER_181_1192
*6022 FILLER_181_1256
*6023 FILLER_181_1262
*6024 FILLER_181_1326
*6025 FILLER_181_1332
*6026 FILLER_181_136
*6027 FILLER_181_1396
*6028 FILLER_181_1402
*6029 FILLER_181_142
*6030 FILLER_181_1466
*6031 FILLER_181_1472
*6032 FILLER_181_1536
*6033 FILLER_181_1542
*6034 FILLER_181_1606
*6035 FILLER_181_1612
*6036 FILLER_181_1676
*6037 FILLER_181_1682
*6038 FILLER_181_1746
*6039 FILLER_181_1752
*6040 FILLER_181_1816
*6041 FILLER_181_1822
*6042 FILLER_181_1886
*6043 FILLER_181_1892
*6044 FILLER_181_1924
*6045 FILLER_181_1932
*6046 FILLER_181_1936
*6047 FILLER_181_2
*6048 FILLER_181_206
*6049 FILLER_181_212
*6050 FILLER_181_276
*6051 FILLER_181_282
*6052 FILLER_181_346
*6053 FILLER_181_352
*6054 FILLER_181_416
*6055 FILLER_181_422
*6056 FILLER_181_486
*6057 FILLER_181_492
*6058 FILLER_181_556
*6059 FILLER_181_562
*6060 FILLER_181_626
*6061 FILLER_181_632
*6062 FILLER_181_66
*6063 FILLER_181_696
*6064 FILLER_181_702
*6065 FILLER_181_72
*6066 FILLER_181_766
*6067 FILLER_181_772
*6068 FILLER_181_836
*6069 FILLER_181_842
*6070 FILLER_181_906
*6071 FILLER_181_912
*6072 FILLER_181_976
*6073 FILLER_181_982
*6074 FILLER_182_101
*6075 FILLER_182_1011
*6076 FILLER_182_1017
*6077 FILLER_182_107
*6078 FILLER_182_1081
*6079 FILLER_182_1087
*6080 FILLER_182_1151
*6081 FILLER_182_1157
*6082 FILLER_182_1221
*6083 FILLER_182_1227
*6084 FILLER_182_1291
*6085 FILLER_182_1297
*6086 FILLER_182_1361
*6087 FILLER_182_1367
*6088 FILLER_182_1431
*6089 FILLER_182_1437
*6090 FILLER_182_1501
*6091 FILLER_182_1507
*6092 FILLER_182_1571
*6093 FILLER_182_1577
*6094 FILLER_182_1641
*6095 FILLER_182_1647
*6096 FILLER_182_171
*6097 FILLER_182_1711
*6098 FILLER_182_1717
*6099 FILLER_182_177
*6100 FILLER_182_1781
*6101 FILLER_182_1787
*6102 FILLER_182_1851
*6103 FILLER_182_1857
*6104 FILLER_182_1921
*6105 FILLER_182_1927
*6106 FILLER_182_1935
*6107 FILLER_182_1937
*6108 FILLER_182_2
*6109 FILLER_182_241
*6110 FILLER_182_247
*6111 FILLER_182_311
*6112 FILLER_182_317
*6113 FILLER_182_34
*6114 FILLER_182_37
*6115 FILLER_182_381
*6116 FILLER_182_387
*6117 FILLER_182_451
*6118 FILLER_182_457
*6119 FILLER_182_521
*6120 FILLER_182_527
*6121 FILLER_182_591
*6122 FILLER_182_597
*6123 FILLER_182_661
*6124 FILLER_182_667
*6125 FILLER_182_731
*6126 FILLER_182_737
*6127 FILLER_182_801
*6128 FILLER_182_807
*6129 FILLER_182_871
*6130 FILLER_182_877
*6131 FILLER_182_941
*6132 FILLER_182_947
*6133 FILLER_183_1046
*6134 FILLER_183_1052
*6135 FILLER_183_1116
*6136 FILLER_183_1122
*6137 FILLER_183_1186
*6138 FILLER_183_1192
*6139 FILLER_183_1256
*6140 FILLER_183_1262
*6141 FILLER_183_1326
*6142 FILLER_183_1332
*6143 FILLER_183_136
*6144 FILLER_183_1396
*6145 FILLER_183_1402
*6146 FILLER_183_142
*6147 FILLER_183_1466
*6148 FILLER_183_1472
*6149 FILLER_183_1536
*6150 FILLER_183_1542
*6151 FILLER_183_1606
*6152 FILLER_183_1612
*6153 FILLER_183_1676
*6154 FILLER_183_1682
*6155 FILLER_183_1746
*6156 FILLER_183_1752
*6157 FILLER_183_1816
*6158 FILLER_183_1822
*6159 FILLER_183_1886
*6160 FILLER_183_1892
*6161 FILLER_183_1924
*6162 FILLER_183_1932
*6163 FILLER_183_1936
*6164 FILLER_183_2
*6165 FILLER_183_206
*6166 FILLER_183_212
*6167 FILLER_183_276
*6168 FILLER_183_282
*6169 FILLER_183_346
*6170 FILLER_183_352
*6171 FILLER_183_416
*6172 FILLER_183_422
*6173 FILLER_183_486
*6174 FILLER_183_492
*6175 FILLER_183_556
*6176 FILLER_183_562
*6177 FILLER_183_626
*6178 FILLER_183_632
*6179 FILLER_183_66
*6180 FILLER_183_696
*6181 FILLER_183_702
*6182 FILLER_183_72
*6183 FILLER_183_766
*6184 FILLER_183_772
*6185 FILLER_183_836
*6186 FILLER_183_842
*6187 FILLER_183_906
*6188 FILLER_183_912
*6189 FILLER_183_976
*6190 FILLER_183_982
*6191 FILLER_184_101
*6192 FILLER_184_1011
*6193 FILLER_184_1017
*6194 FILLER_184_107
*6195 FILLER_184_1081
*6196 FILLER_184_1087
*6197 FILLER_184_1151
*6198 FILLER_184_1157
*6199 FILLER_184_1221
*6200 FILLER_184_1227
*6201 FILLER_184_1291
*6202 FILLER_184_1297
*6203 FILLER_184_1361
*6204 FILLER_184_1367
*6205 FILLER_184_1431
*6206 FILLER_184_1437
*6207 FILLER_184_1501
*6208 FILLER_184_1507
*6209 FILLER_184_1571
*6210 FILLER_184_1577
*6211 FILLER_184_1641
*6212 FILLER_184_1647
*6213 FILLER_184_171
*6214 FILLER_184_1711
*6215 FILLER_184_1717
*6216 FILLER_184_177
*6217 FILLER_184_1781
*6218 FILLER_184_1787
*6219 FILLER_184_1851
*6220 FILLER_184_1857
*6221 FILLER_184_1921
*6222 FILLER_184_1927
*6223 FILLER_184_1935
*6224 FILLER_184_1937
*6225 FILLER_184_2
*6226 FILLER_184_241
*6227 FILLER_184_247
*6228 FILLER_184_311
*6229 FILLER_184_317
*6230 FILLER_184_34
*6231 FILLER_184_37
*6232 FILLER_184_381
*6233 FILLER_184_387
*6234 FILLER_184_451
*6235 FILLER_184_457
*6236 FILLER_184_521
*6237 FILLER_184_527
*6238 FILLER_184_591
*6239 FILLER_184_597
*6240 FILLER_184_661
*6241 FILLER_184_667
*6242 FILLER_184_731
*6243 FILLER_184_737
*6244 FILLER_184_801
*6245 FILLER_184_807
*6246 FILLER_184_871
*6247 FILLER_184_877
*6248 FILLER_184_941
*6249 FILLER_184_947
*6250 FILLER_185_1046
*6251 FILLER_185_1052
*6252 FILLER_185_1116
*6253 FILLER_185_1122
*6254 FILLER_185_1186
*6255 FILLER_185_1192
*6256 FILLER_185_1256
*6257 FILLER_185_1262
*6258 FILLER_185_1326
*6259 FILLER_185_1332
*6260 FILLER_185_136
*6261 FILLER_185_1396
*6262 FILLER_185_1402
*6263 FILLER_185_142
*6264 FILLER_185_1466
*6265 FILLER_185_1472
*6266 FILLER_185_1536
*6267 FILLER_185_1542
*6268 FILLER_185_1606
*6269 FILLER_185_1612
*6270 FILLER_185_1676
*6271 FILLER_185_1682
*6272 FILLER_185_1746
*6273 FILLER_185_1752
*6274 FILLER_185_1816
*6275 FILLER_185_1822
*6276 FILLER_185_1886
*6277 FILLER_185_1892
*6278 FILLER_185_1924
*6279 FILLER_185_1932
*6280 FILLER_185_1936
*6281 FILLER_185_2
*6282 FILLER_185_206
*6283 FILLER_185_212
*6284 FILLER_185_276
*6285 FILLER_185_282
*6286 FILLER_185_346
*6287 FILLER_185_352
*6288 FILLER_185_416
*6289 FILLER_185_422
*6290 FILLER_185_486
*6291 FILLER_185_492
*6292 FILLER_185_556
*6293 FILLER_185_562
*6294 FILLER_185_626
*6295 FILLER_185_632
*6296 FILLER_185_66
*6297 FILLER_185_696
*6298 FILLER_185_702
*6299 FILLER_185_72
*6300 FILLER_185_766
*6301 FILLER_185_772
*6302 FILLER_185_836
*6303 FILLER_185_842
*6304 FILLER_185_906
*6305 FILLER_185_912
*6306 FILLER_185_976
*6307 FILLER_185_982
*6308 FILLER_186_101
*6309 FILLER_186_1011
*6310 FILLER_186_1017
*6311 FILLER_186_107
*6312 FILLER_186_1081
*6313 FILLER_186_1087
*6314 FILLER_186_1151
*6315 FILLER_186_1157
*6316 FILLER_186_1221
*6317 FILLER_186_1227
*6318 FILLER_186_1291
*6319 FILLER_186_1297
*6320 FILLER_186_1361
*6321 FILLER_186_1367
*6322 FILLER_186_1431
*6323 FILLER_186_1437
*6324 FILLER_186_1501
*6325 FILLER_186_1507
*6326 FILLER_186_1571
*6327 FILLER_186_1577
*6328 FILLER_186_1641
*6329 FILLER_186_1647
*6330 FILLER_186_171
*6331 FILLER_186_1711
*6332 FILLER_186_1717
*6333 FILLER_186_177
*6334 FILLER_186_1781
*6335 FILLER_186_1787
*6336 FILLER_186_1851
*6337 FILLER_186_1857
*6338 FILLER_186_1921
*6339 FILLER_186_1927
*6340 FILLER_186_1935
*6341 FILLER_186_1937
*6342 FILLER_186_2
*6343 FILLER_186_241
*6344 FILLER_186_247
*6345 FILLER_186_311
*6346 FILLER_186_317
*6347 FILLER_186_34
*6348 FILLER_186_37
*6349 FILLER_186_381
*6350 FILLER_186_387
*6351 FILLER_186_451
*6352 FILLER_186_457
*6353 FILLER_186_521
*6354 FILLER_186_527
*6355 FILLER_186_591
*6356 FILLER_186_597
*6357 FILLER_186_661
*6358 FILLER_186_667
*6359 FILLER_186_731
*6360 FILLER_186_737
*6361 FILLER_186_801
*6362 FILLER_186_807
*6363 FILLER_186_871
*6364 FILLER_186_877
*6365 FILLER_186_941
*6366 FILLER_186_947
*6367 FILLER_187_1046
*6368 FILLER_187_1052
*6369 FILLER_187_1116
*6370 FILLER_187_1122
*6371 FILLER_187_1186
*6372 FILLER_187_1192
*6373 FILLER_187_1256
*6374 FILLER_187_1262
*6375 FILLER_187_1326
*6376 FILLER_187_1332
*6377 FILLER_187_136
*6378 FILLER_187_1396
*6379 FILLER_187_1402
*6380 FILLER_187_142
*6381 FILLER_187_1466
*6382 FILLER_187_1472
*6383 FILLER_187_1536
*6384 FILLER_187_1542
*6385 FILLER_187_1606
*6386 FILLER_187_1612
*6387 FILLER_187_1676
*6388 FILLER_187_1682
*6389 FILLER_187_1746
*6390 FILLER_187_1752
*6391 FILLER_187_1816
*6392 FILLER_187_1822
*6393 FILLER_187_1886
*6394 FILLER_187_1892
*6395 FILLER_187_1924
*6396 FILLER_187_1932
*6397 FILLER_187_1936
*6398 FILLER_187_2
*6399 FILLER_187_206
*6400 FILLER_187_212
*6401 FILLER_187_276
*6402 FILLER_187_282
*6403 FILLER_187_346
*6404 FILLER_187_352
*6405 FILLER_187_416
*6406 FILLER_187_422
*6407 FILLER_187_486
*6408 FILLER_187_492
*6409 FILLER_187_556
*6410 FILLER_187_562
*6411 FILLER_187_626
*6412 FILLER_187_632
*6413 FILLER_187_66
*6414 FILLER_187_696
*6415 FILLER_187_702
*6416 FILLER_187_72
*6417 FILLER_187_766
*6418 FILLER_187_772
*6419 FILLER_187_836
*6420 FILLER_187_842
*6421 FILLER_187_906
*6422 FILLER_187_912
*6423 FILLER_187_976
*6424 FILLER_187_982
*6425 FILLER_188_101
*6426 FILLER_188_1011
*6427 FILLER_188_1017
*6428 FILLER_188_107
*6429 FILLER_188_1081
*6430 FILLER_188_1087
*6431 FILLER_188_1151
*6432 FILLER_188_1157
*6433 FILLER_188_1221
*6434 FILLER_188_1227
*6435 FILLER_188_1291
*6436 FILLER_188_1297
*6437 FILLER_188_1361
*6438 FILLER_188_1367
*6439 FILLER_188_1431
*6440 FILLER_188_1437
*6441 FILLER_188_1501
*6442 FILLER_188_1507
*6443 FILLER_188_1571
*6444 FILLER_188_1577
*6445 FILLER_188_1641
*6446 FILLER_188_1647
*6447 FILLER_188_171
*6448 FILLER_188_1711
*6449 FILLER_188_1717
*6450 FILLER_188_177
*6451 FILLER_188_1781
*6452 FILLER_188_1787
*6453 FILLER_188_1851
*6454 FILLER_188_1857
*6455 FILLER_188_1921
*6456 FILLER_188_1927
*6457 FILLER_188_1935
*6458 FILLER_188_1937
*6459 FILLER_188_2
*6460 FILLER_188_241
*6461 FILLER_188_247
*6462 FILLER_188_311
*6463 FILLER_188_317
*6464 FILLER_188_34
*6465 FILLER_188_37
*6466 FILLER_188_381
*6467 FILLER_188_387
*6468 FILLER_188_451
*6469 FILLER_188_457
*6470 FILLER_188_521
*6471 FILLER_188_527
*6472 FILLER_188_591
*6473 FILLER_188_597
*6474 FILLER_188_661
*6475 FILLER_188_667
*6476 FILLER_188_731
*6477 FILLER_188_737
*6478 FILLER_188_801
*6479 FILLER_188_807
*6480 FILLER_188_871
*6481 FILLER_188_877
*6482 FILLER_188_941
*6483 FILLER_188_947
*6484 FILLER_189_1046
*6485 FILLER_189_1052
*6486 FILLER_189_1116
*6487 FILLER_189_1122
*6488 FILLER_189_1186
*6489 FILLER_189_1192
*6490 FILLER_189_1256
*6491 FILLER_189_1262
*6492 FILLER_189_1326
*6493 FILLER_189_1332
*6494 FILLER_189_136
*6495 FILLER_189_1396
*6496 FILLER_189_1402
*6497 FILLER_189_142
*6498 FILLER_189_1466
*6499 FILLER_189_1472
*6500 FILLER_189_1536
*6501 FILLER_189_1542
*6502 FILLER_189_1606
*6503 FILLER_189_1612
*6504 FILLER_189_1676
*6505 FILLER_189_1682
*6506 FILLER_189_1746
*6507 FILLER_189_1752
*6508 FILLER_189_1816
*6509 FILLER_189_1822
*6510 FILLER_189_1886
*6511 FILLER_189_1892
*6512 FILLER_189_1924
*6513 FILLER_189_1932
*6514 FILLER_189_1936
*6515 FILLER_189_2
*6516 FILLER_189_206
*6517 FILLER_189_212
*6518 FILLER_189_276
*6519 FILLER_189_282
*6520 FILLER_189_346
*6521 FILLER_189_352
*6522 FILLER_189_416
*6523 FILLER_189_422
*6524 FILLER_189_486
*6525 FILLER_189_492
*6526 FILLER_189_556
*6527 FILLER_189_562
*6528 FILLER_189_626
*6529 FILLER_189_632
*6530 FILLER_189_66
*6531 FILLER_189_696
*6532 FILLER_189_702
*6533 FILLER_189_72
*6534 FILLER_189_766
*6535 FILLER_189_772
*6536 FILLER_189_836
*6537 FILLER_189_842
*6538 FILLER_189_906
*6539 FILLER_189_912
*6540 FILLER_189_976
*6541 FILLER_189_982
*6542 FILLER_18_101
*6543 FILLER_18_1011
*6544 FILLER_18_1017
*6545 FILLER_18_107
*6546 FILLER_18_1081
*6547 FILLER_18_1087
*6548 FILLER_18_1151
*6549 FILLER_18_1157
*6550 FILLER_18_1221
*6551 FILLER_18_1227
*6552 FILLER_18_1291
*6553 FILLER_18_1297
*6554 FILLER_18_1361
*6555 FILLER_18_1367
*6556 FILLER_18_1431
*6557 FILLER_18_1437
*6558 FILLER_18_1501
*6559 FILLER_18_1507
*6560 FILLER_18_1571
*6561 FILLER_18_1577
*6562 FILLER_18_1641
*6563 FILLER_18_1647
*6564 FILLER_18_171
*6565 FILLER_18_1711
*6566 FILLER_18_1717
*6567 FILLER_18_177
*6568 FILLER_18_1781
*6569 FILLER_18_1787
*6570 FILLER_18_1851
*6571 FILLER_18_1857
*6572 FILLER_18_1921
*6573 FILLER_18_1927
*6574 FILLER_18_1935
*6575 FILLER_18_1937
*6576 FILLER_18_2
*6577 FILLER_18_241
*6578 FILLER_18_247
*6579 FILLER_18_311
*6580 FILLER_18_317
*6581 FILLER_18_34
*6582 FILLER_18_37
*6583 FILLER_18_381
*6584 FILLER_18_387
*6585 FILLER_18_451
*6586 FILLER_18_457
*6587 FILLER_18_521
*6588 FILLER_18_527
*6589 FILLER_18_591
*6590 FILLER_18_597
*6591 FILLER_18_661
*6592 FILLER_18_667
*6593 FILLER_18_731
*6594 FILLER_18_737
*6595 FILLER_18_801
*6596 FILLER_18_807
*6597 FILLER_18_871
*6598 FILLER_18_877
*6599 FILLER_18_941
*6600 FILLER_18_947
*6601 FILLER_190_101
*6602 FILLER_190_1011
*6603 FILLER_190_1017
*6604 FILLER_190_107
*6605 FILLER_190_1081
*6606 FILLER_190_1087
*6607 FILLER_190_1151
*6608 FILLER_190_1157
*6609 FILLER_190_1221
*6610 FILLER_190_1227
*6611 FILLER_190_1291
*6612 FILLER_190_1297
*6613 FILLER_190_1361
*6614 FILLER_190_1367
*6615 FILLER_190_1431
*6616 FILLER_190_1437
*6617 FILLER_190_1501
*6618 FILLER_190_1507
*6619 FILLER_190_1571
*6620 FILLER_190_1577
*6621 FILLER_190_1641
*6622 FILLER_190_1647
*6623 FILLER_190_171
*6624 FILLER_190_1711
*6625 FILLER_190_1717
*6626 FILLER_190_177
*6627 FILLER_190_1781
*6628 FILLER_190_1787
*6629 FILLER_190_1851
*6630 FILLER_190_1857
*6631 FILLER_190_1921
*6632 FILLER_190_1927
*6633 FILLER_190_1935
*6634 FILLER_190_1937
*6635 FILLER_190_2
*6636 FILLER_190_241
*6637 FILLER_190_247
*6638 FILLER_190_311
*6639 FILLER_190_317
*6640 FILLER_190_34
*6641 FILLER_190_37
*6642 FILLER_190_381
*6643 FILLER_190_387
*6644 FILLER_190_451
*6645 FILLER_190_457
*6646 FILLER_190_521
*6647 FILLER_190_527
*6648 FILLER_190_591
*6649 FILLER_190_597
*6650 FILLER_190_661
*6651 FILLER_190_667
*6652 FILLER_190_731
*6653 FILLER_190_737
*6654 FILLER_190_801
*6655 FILLER_190_807
*6656 FILLER_190_871
*6657 FILLER_190_877
*6658 FILLER_190_941
*6659 FILLER_190_947
*6660 FILLER_191_1046
*6661 FILLER_191_1052
*6662 FILLER_191_1116
*6663 FILLER_191_1122
*6664 FILLER_191_1186
*6665 FILLER_191_1192
*6666 FILLER_191_1256
*6667 FILLER_191_1262
*6668 FILLER_191_1326
*6669 FILLER_191_1332
*6670 FILLER_191_136
*6671 FILLER_191_1396
*6672 FILLER_191_1402
*6673 FILLER_191_142
*6674 FILLER_191_1466
*6675 FILLER_191_1472
*6676 FILLER_191_1536
*6677 FILLER_191_1542
*6678 FILLER_191_1606
*6679 FILLER_191_1612
*6680 FILLER_191_1676
*6681 FILLER_191_1682
*6682 FILLER_191_1746
*6683 FILLER_191_1752
*6684 FILLER_191_1816
*6685 FILLER_191_1822
*6686 FILLER_191_1886
*6687 FILLER_191_1892
*6688 FILLER_191_1924
*6689 FILLER_191_1932
*6690 FILLER_191_1936
*6691 FILLER_191_2
*6692 FILLER_191_206
*6693 FILLER_191_212
*6694 FILLER_191_276
*6695 FILLER_191_282
*6696 FILLER_191_346
*6697 FILLER_191_352
*6698 FILLER_191_416
*6699 FILLER_191_422
*6700 FILLER_191_486
*6701 FILLER_191_492
*6702 FILLER_191_556
*6703 FILLER_191_562
*6704 FILLER_191_626
*6705 FILLER_191_632
*6706 FILLER_191_66
*6707 FILLER_191_696
*6708 FILLER_191_702
*6709 FILLER_191_72
*6710 FILLER_191_766
*6711 FILLER_191_772
*6712 FILLER_191_836
*6713 FILLER_191_842
*6714 FILLER_191_906
*6715 FILLER_191_912
*6716 FILLER_191_976
*6717 FILLER_191_982
*6718 FILLER_192_101
*6719 FILLER_192_1011
*6720 FILLER_192_1017
*6721 FILLER_192_107
*6722 FILLER_192_1081
*6723 FILLER_192_1087
*6724 FILLER_192_1151
*6725 FILLER_192_1157
*6726 FILLER_192_1221
*6727 FILLER_192_1227
*6728 FILLER_192_1291
*6729 FILLER_192_1297
*6730 FILLER_192_1361
*6731 FILLER_192_1367
*6732 FILLER_192_1431
*6733 FILLER_192_1437
*6734 FILLER_192_1501
*6735 FILLER_192_1507
*6736 FILLER_192_1571
*6737 FILLER_192_1577
*6738 FILLER_192_1641
*6739 FILLER_192_1647
*6740 FILLER_192_171
*6741 FILLER_192_1711
*6742 FILLER_192_1717
*6743 FILLER_192_177
*6744 FILLER_192_1781
*6745 FILLER_192_1787
*6746 FILLER_192_1851
*6747 FILLER_192_1857
*6748 FILLER_192_1921
*6749 FILLER_192_1927
*6750 FILLER_192_1935
*6751 FILLER_192_1937
*6752 FILLER_192_2
*6753 FILLER_192_241
*6754 FILLER_192_247
*6755 FILLER_192_311
*6756 FILLER_192_317
*6757 FILLER_192_34
*6758 FILLER_192_37
*6759 FILLER_192_381
*6760 FILLER_192_387
*6761 FILLER_192_451
*6762 FILLER_192_457
*6763 FILLER_192_521
*6764 FILLER_192_527
*6765 FILLER_192_591
*6766 FILLER_192_597
*6767 FILLER_192_661
*6768 FILLER_192_667
*6769 FILLER_192_731
*6770 FILLER_192_737
*6771 FILLER_192_801
*6772 FILLER_192_807
*6773 FILLER_192_871
*6774 FILLER_192_877
*6775 FILLER_192_941
*6776 FILLER_192_947
*6777 FILLER_193_1046
*6778 FILLER_193_1052
*6779 FILLER_193_1116
*6780 FILLER_193_1122
*6781 FILLER_193_1186
*6782 FILLER_193_1192
*6783 FILLER_193_1256
*6784 FILLER_193_1262
*6785 FILLER_193_1326
*6786 FILLER_193_1332
*6787 FILLER_193_136
*6788 FILLER_193_1396
*6789 FILLER_193_1402
*6790 FILLER_193_142
*6791 FILLER_193_1466
*6792 FILLER_193_1472
*6793 FILLER_193_1536
*6794 FILLER_193_1542
*6795 FILLER_193_1606
*6796 FILLER_193_1612
*6797 FILLER_193_1676
*6798 FILLER_193_1682
*6799 FILLER_193_1746
*6800 FILLER_193_1752
*6801 FILLER_193_1816
*6802 FILLER_193_1822
*6803 FILLER_193_1886
*6804 FILLER_193_1892
*6805 FILLER_193_1924
*6806 FILLER_193_1932
*6807 FILLER_193_1936
*6808 FILLER_193_2
*6809 FILLER_193_206
*6810 FILLER_193_212
*6811 FILLER_193_276
*6812 FILLER_193_282
*6813 FILLER_193_346
*6814 FILLER_193_352
*6815 FILLER_193_416
*6816 FILLER_193_422
*6817 FILLER_193_486
*6818 FILLER_193_492
*6819 FILLER_193_556
*6820 FILLER_193_562
*6821 FILLER_193_626
*6822 FILLER_193_632
*6823 FILLER_193_66
*6824 FILLER_193_696
*6825 FILLER_193_702
*6826 FILLER_193_72
*6827 FILLER_193_766
*6828 FILLER_193_772
*6829 FILLER_193_836
*6830 FILLER_193_842
*6831 FILLER_193_906
*6832 FILLER_193_912
*6833 FILLER_193_976
*6834 FILLER_193_982
*6835 FILLER_194_101
*6836 FILLER_194_1011
*6837 FILLER_194_1017
*6838 FILLER_194_107
*6839 FILLER_194_1081
*6840 FILLER_194_1087
*6841 FILLER_194_1151
*6842 FILLER_194_1157
*6843 FILLER_194_1221
*6844 FILLER_194_1227
*6845 FILLER_194_1291
*6846 FILLER_194_1297
*6847 FILLER_194_1361
*6848 FILLER_194_1367
*6849 FILLER_194_1431
*6850 FILLER_194_1437
*6851 FILLER_194_1501
*6852 FILLER_194_1507
*6853 FILLER_194_1571
*6854 FILLER_194_1577
*6855 FILLER_194_1641
*6856 FILLER_194_1647
*6857 FILLER_194_171
*6858 FILLER_194_1711
*6859 FILLER_194_1717
*6860 FILLER_194_177
*6861 FILLER_194_1781
*6862 FILLER_194_1787
*6863 FILLER_194_1851
*6864 FILLER_194_1857
*6865 FILLER_194_1921
*6866 FILLER_194_1927
*6867 FILLER_194_1935
*6868 FILLER_194_1937
*6869 FILLER_194_2
*6870 FILLER_194_241
*6871 FILLER_194_247
*6872 FILLER_194_311
*6873 FILLER_194_317
*6874 FILLER_194_34
*6875 FILLER_194_37
*6876 FILLER_194_381
*6877 FILLER_194_387
*6878 FILLER_194_451
*6879 FILLER_194_457
*6880 FILLER_194_521
*6881 FILLER_194_527
*6882 FILLER_194_591
*6883 FILLER_194_597
*6884 FILLER_194_661
*6885 FILLER_194_667
*6886 FILLER_194_731
*6887 FILLER_194_737
*6888 FILLER_194_801
*6889 FILLER_194_807
*6890 FILLER_194_871
*6891 FILLER_194_877
*6892 FILLER_194_941
*6893 FILLER_194_947
*6894 FILLER_195_1046
*6895 FILLER_195_1052
*6896 FILLER_195_1116
*6897 FILLER_195_1122
*6898 FILLER_195_1186
*6899 FILLER_195_1192
*6900 FILLER_195_1256
*6901 FILLER_195_1262
*6902 FILLER_195_1326
*6903 FILLER_195_1332
*6904 FILLER_195_136
*6905 FILLER_195_1396
*6906 FILLER_195_1402
*6907 FILLER_195_142
*6908 FILLER_195_1466
*6909 FILLER_195_1472
*6910 FILLER_195_1536
*6911 FILLER_195_1542
*6912 FILLER_195_1606
*6913 FILLER_195_1612
*6914 FILLER_195_1676
*6915 FILLER_195_1682
*6916 FILLER_195_1746
*6917 FILLER_195_1752
*6918 FILLER_195_1816
*6919 FILLER_195_1822
*6920 FILLER_195_1886
*6921 FILLER_195_1892
*6922 FILLER_195_1924
*6923 FILLER_195_1932
*6924 FILLER_195_1936
*6925 FILLER_195_2
*6926 FILLER_195_206
*6927 FILLER_195_212
*6928 FILLER_195_276
*6929 FILLER_195_282
*6930 FILLER_195_346
*6931 FILLER_195_352
*6932 FILLER_195_416
*6933 FILLER_195_422
*6934 FILLER_195_486
*6935 FILLER_195_492
*6936 FILLER_195_556
*6937 FILLER_195_562
*6938 FILLER_195_626
*6939 FILLER_195_632
*6940 FILLER_195_66
*6941 FILLER_195_696
*6942 FILLER_195_702
*6943 FILLER_195_72
*6944 FILLER_195_766
*6945 FILLER_195_772
*6946 FILLER_195_836
*6947 FILLER_195_842
*6948 FILLER_195_906
*6949 FILLER_195_912
*6950 FILLER_195_976
*6951 FILLER_195_982
*6952 FILLER_196_101
*6953 FILLER_196_1011
*6954 FILLER_196_1017
*6955 FILLER_196_107
*6956 FILLER_196_1081
*6957 FILLER_196_1087
*6958 FILLER_196_1151
*6959 FILLER_196_1157
*6960 FILLER_196_1221
*6961 FILLER_196_1227
*6962 FILLER_196_1291
*6963 FILLER_196_1297
*6964 FILLER_196_1361
*6965 FILLER_196_1367
*6966 FILLER_196_1431
*6967 FILLER_196_1437
*6968 FILLER_196_1501
*6969 FILLER_196_1507
*6970 FILLER_196_1571
*6971 FILLER_196_1577
*6972 FILLER_196_1641
*6973 FILLER_196_1647
*6974 FILLER_196_171
*6975 FILLER_196_1711
*6976 FILLER_196_1717
*6977 FILLER_196_177
*6978 FILLER_196_1781
*6979 FILLER_196_1787
*6980 FILLER_196_1851
*6981 FILLER_196_1857
*6982 FILLER_196_1921
*6983 FILLER_196_1927
*6984 FILLER_196_1935
*6985 FILLER_196_1937
*6986 FILLER_196_2
*6987 FILLER_196_241
*6988 FILLER_196_247
*6989 FILLER_196_311
*6990 FILLER_196_317
*6991 FILLER_196_34
*6992 FILLER_196_37
*6993 FILLER_196_381
*6994 FILLER_196_387
*6995 FILLER_196_451
*6996 FILLER_196_457
*6997 FILLER_196_521
*6998 FILLER_196_527
*6999 FILLER_196_591
*7000 FILLER_196_597
*7001 FILLER_196_661
*7002 FILLER_196_667
*7003 FILLER_196_731
*7004 FILLER_196_737
*7005 FILLER_196_801
*7006 FILLER_196_807
*7007 FILLER_196_871
*7008 FILLER_196_877
*7009 FILLER_196_941
*7010 FILLER_196_947
*7011 FILLER_197_1046
*7012 FILLER_197_1052
*7013 FILLER_197_1116
*7014 FILLER_197_1122
*7015 FILLER_197_1186
*7016 FILLER_197_1192
*7017 FILLER_197_1256
*7018 FILLER_197_1262
*7019 FILLER_197_1326
*7020 FILLER_197_1332
*7021 FILLER_197_136
*7022 FILLER_197_1396
*7023 FILLER_197_1402
*7024 FILLER_197_142
*7025 FILLER_197_1466
*7026 FILLER_197_1472
*7027 FILLER_197_1536
*7028 FILLER_197_1542
*7029 FILLER_197_1606
*7030 FILLER_197_1612
*7031 FILLER_197_1676
*7032 FILLER_197_1682
*7033 FILLER_197_1746
*7034 FILLER_197_1752
*7035 FILLER_197_1816
*7036 FILLER_197_1822
*7037 FILLER_197_1886
*7038 FILLER_197_1892
*7039 FILLER_197_1924
*7040 FILLER_197_1932
*7041 FILLER_197_1936
*7042 FILLER_197_2
*7043 FILLER_197_206
*7044 FILLER_197_212
*7045 FILLER_197_276
*7046 FILLER_197_282
*7047 FILLER_197_346
*7048 FILLER_197_352
*7049 FILLER_197_416
*7050 FILLER_197_422
*7051 FILLER_197_486
*7052 FILLER_197_492
*7053 FILLER_197_556
*7054 FILLER_197_562
*7055 FILLER_197_626
*7056 FILLER_197_632
*7057 FILLER_197_66
*7058 FILLER_197_696
*7059 FILLER_197_702
*7060 FILLER_197_72
*7061 FILLER_197_766
*7062 FILLER_197_772
*7063 FILLER_197_836
*7064 FILLER_197_842
*7065 FILLER_197_906
*7066 FILLER_197_912
*7067 FILLER_197_976
*7068 FILLER_197_982
*7069 FILLER_198_101
*7070 FILLER_198_1011
*7071 FILLER_198_1017
*7072 FILLER_198_107
*7073 FILLER_198_1081
*7074 FILLER_198_1087
*7075 FILLER_198_1151
*7076 FILLER_198_1157
*7077 FILLER_198_1221
*7078 FILLER_198_1227
*7079 FILLER_198_1291
*7080 FILLER_198_1297
*7081 FILLER_198_1361
*7082 FILLER_198_1367
*7083 FILLER_198_1431
*7084 FILLER_198_1437
*7085 FILLER_198_1501
*7086 FILLER_198_1507
*7087 FILLER_198_1571
*7088 FILLER_198_1577
*7089 FILLER_198_1641
*7090 FILLER_198_1647
*7091 FILLER_198_171
*7092 FILLER_198_1711
*7093 FILLER_198_1717
*7094 FILLER_198_177
*7095 FILLER_198_1781
*7096 FILLER_198_1787
*7097 FILLER_198_1851
*7098 FILLER_198_1857
*7099 FILLER_198_1921
*7100 FILLER_198_1927
*7101 FILLER_198_1935
*7102 FILLER_198_1937
*7103 FILLER_198_2
*7104 FILLER_198_241
*7105 FILLER_198_247
*7106 FILLER_198_311
*7107 FILLER_198_317
*7108 FILLER_198_34
*7109 FILLER_198_37
*7110 FILLER_198_381
*7111 FILLER_198_387
*7112 FILLER_198_451
*7113 FILLER_198_457
*7114 FILLER_198_521
*7115 FILLER_198_527
*7116 FILLER_198_591
*7117 FILLER_198_597
*7118 FILLER_198_661
*7119 FILLER_198_667
*7120 FILLER_198_731
*7121 FILLER_198_737
*7122 FILLER_198_801
*7123 FILLER_198_807
*7124 FILLER_198_871
*7125 FILLER_198_877
*7126 FILLER_198_941
*7127 FILLER_198_947
*7128 FILLER_199_1046
*7129 FILLER_199_1052
*7130 FILLER_199_1116
*7131 FILLER_199_1122
*7132 FILLER_199_1186
*7133 FILLER_199_1192
*7134 FILLER_199_1256
*7135 FILLER_199_1262
*7136 FILLER_199_1326
*7137 FILLER_199_1332
*7138 FILLER_199_136
*7139 FILLER_199_1396
*7140 FILLER_199_1402
*7141 FILLER_199_142
*7142 FILLER_199_1466
*7143 FILLER_199_1472
*7144 FILLER_199_1536
*7145 FILLER_199_1542
*7146 FILLER_199_1606
*7147 FILLER_199_1612
*7148 FILLER_199_1676
*7149 FILLER_199_1682
*7150 FILLER_199_1746
*7151 FILLER_199_1752
*7152 FILLER_199_1816
*7153 FILLER_199_1822
*7154 FILLER_199_1886
*7155 FILLER_199_1892
*7156 FILLER_199_1924
*7157 FILLER_199_1932
*7158 FILLER_199_1936
*7159 FILLER_199_2
*7160 FILLER_199_206
*7161 FILLER_199_212
*7162 FILLER_199_276
*7163 FILLER_199_282
*7164 FILLER_199_346
*7165 FILLER_199_352
*7166 FILLER_199_416
*7167 FILLER_199_422
*7168 FILLER_199_486
*7169 FILLER_199_492
*7170 FILLER_199_556
*7171 FILLER_199_562
*7172 FILLER_199_626
*7173 FILLER_199_632
*7174 FILLER_199_66
*7175 FILLER_199_696
*7176 FILLER_199_702
*7177 FILLER_199_72
*7178 FILLER_199_766
*7179 FILLER_199_772
*7180 FILLER_199_836
*7181 FILLER_199_842
*7182 FILLER_199_906
*7183 FILLER_199_912
*7184 FILLER_199_976
*7185 FILLER_199_982
*7186 FILLER_19_1046
*7187 FILLER_19_1052
*7188 FILLER_19_1116
*7189 FILLER_19_1122
*7190 FILLER_19_1186
*7191 FILLER_19_1192
*7192 FILLER_19_1256
*7193 FILLER_19_1262
*7194 FILLER_19_1326
*7195 FILLER_19_1332
*7196 FILLER_19_136
*7197 FILLER_19_1396
*7198 FILLER_19_1402
*7199 FILLER_19_142
*7200 FILLER_19_1466
*7201 FILLER_19_1472
*7202 FILLER_19_1536
*7203 FILLER_19_1542
*7204 FILLER_19_1606
*7205 FILLER_19_1612
*7206 FILLER_19_1676
*7207 FILLER_19_1682
*7208 FILLER_19_1746
*7209 FILLER_19_1752
*7210 FILLER_19_1816
*7211 FILLER_19_1822
*7212 FILLER_19_1886
*7213 FILLER_19_1892
*7214 FILLER_19_1924
*7215 FILLER_19_1932
*7216 FILLER_19_1936
*7217 FILLER_19_2
*7218 FILLER_19_206
*7219 FILLER_19_212
*7220 FILLER_19_276
*7221 FILLER_19_282
*7222 FILLER_19_346
*7223 FILLER_19_352
*7224 FILLER_19_416
*7225 FILLER_19_422
*7226 FILLER_19_486
*7227 FILLER_19_492
*7228 FILLER_19_556
*7229 FILLER_19_562
*7230 FILLER_19_626
*7231 FILLER_19_632
*7232 FILLER_19_66
*7233 FILLER_19_696
*7234 FILLER_19_702
*7235 FILLER_19_72
*7236 FILLER_19_766
*7237 FILLER_19_772
*7238 FILLER_19_836
*7239 FILLER_19_842
*7240 FILLER_19_906
*7241 FILLER_19_912
*7242 FILLER_19_976
*7243 FILLER_19_982
*7244 FILLER_1_1003
*7245 FILLER_1_1009
*7246 FILLER_1_1015
*7247 FILLER_1_1021
*7248 FILLER_1_1027
*7249 FILLER_1_1033
*7250 FILLER_1_1039
*7251 FILLER_1_1045
*7252 FILLER_1_1049
*7253 FILLER_1_1052
*7254 FILLER_1_1057
*7255 FILLER_1_1063
*7256 FILLER_1_1069
*7257 FILLER_1_1075
*7258 FILLER_1_1081
*7259 FILLER_1_1087
*7260 FILLER_1_1093
*7261 FILLER_1_1099
*7262 FILLER_1_1105
*7263 FILLER_1_1111
*7264 FILLER_1_1117
*7265 FILLER_1_1119
*7266 FILLER_1_1122
*7267 FILLER_1_1186
*7268 FILLER_1_1192
*7269 FILLER_1_1256
*7270 FILLER_1_1262
*7271 FILLER_1_1326
*7272 FILLER_1_1332
*7273 FILLER_1_136
*7274 FILLER_1_1396
*7275 FILLER_1_1402
*7276 FILLER_1_142
*7277 FILLER_1_1466
*7278 FILLER_1_1472
*7279 FILLER_1_1536
*7280 FILLER_1_1542
*7281 FILLER_1_1606
*7282 FILLER_1_1612
*7283 FILLER_1_1676
*7284 FILLER_1_1682
*7285 FILLER_1_1746
*7286 FILLER_1_1752
*7287 FILLER_1_1816
*7288 FILLER_1_1822
*7289 FILLER_1_1886
*7290 FILLER_1_1892
*7291 FILLER_1_1924
*7292 FILLER_1_1932
*7293 FILLER_1_1936
*7294 FILLER_1_2
*7295 FILLER_1_206
*7296 FILLER_1_212
*7297 FILLER_1_276
*7298 FILLER_1_282
*7299 FILLER_1_346
*7300 FILLER_1_352
*7301 FILLER_1_416
*7302 FILLER_1_422
*7303 FILLER_1_486
*7304 FILLER_1_492
*7305 FILLER_1_556
*7306 FILLER_1_562
*7307 FILLER_1_626
*7308 FILLER_1_632
*7309 FILLER_1_66
*7310 FILLER_1_696
*7311 FILLER_1_702
*7312 FILLER_1_72
*7313 FILLER_1_766
*7314 FILLER_1_772
*7315 FILLER_1_836
*7316 FILLER_1_842
*7317 FILLER_1_874
*7318 FILLER_1_879
*7319 FILLER_1_885
*7320 FILLER_1_891
*7321 FILLER_1_897
*7322 FILLER_1_903
*7323 FILLER_1_909
*7324 FILLER_1_912
*7325 FILLER_1_914
*7326 FILLER_1_919
*7327 FILLER_1_925
*7328 FILLER_1_931
*7329 FILLER_1_937
*7330 FILLER_1_943
*7331 FILLER_1_949
*7332 FILLER_1_955
*7333 FILLER_1_961
*7334 FILLER_1_967
*7335 FILLER_1_973
*7336 FILLER_1_979
*7337 FILLER_1_982
*7338 FILLER_1_988
*7339 FILLER_1_996
*7340 FILLER_1_998
*7341 FILLER_200_101
*7342 FILLER_200_1011
*7343 FILLER_200_1017
*7344 FILLER_200_107
*7345 FILLER_200_1081
*7346 FILLER_200_1087
*7347 FILLER_200_1151
*7348 FILLER_200_1157
*7349 FILLER_200_1221
*7350 FILLER_200_1227
*7351 FILLER_200_1291
*7352 FILLER_200_1297
*7353 FILLER_200_1361
*7354 FILLER_200_1367
*7355 FILLER_200_1431
*7356 FILLER_200_1437
*7357 FILLER_200_1501
*7358 FILLER_200_1507
*7359 FILLER_200_1571
*7360 FILLER_200_1577
*7361 FILLER_200_1641
*7362 FILLER_200_1647
*7363 FILLER_200_171
*7364 FILLER_200_1711
*7365 FILLER_200_1717
*7366 FILLER_200_177
*7367 FILLER_200_1781
*7368 FILLER_200_1787
*7369 FILLER_200_1851
*7370 FILLER_200_1857
*7371 FILLER_200_1921
*7372 FILLER_200_1927
*7373 FILLER_200_1935
*7374 FILLER_200_1937
*7375 FILLER_200_2
*7376 FILLER_200_241
*7377 FILLER_200_247
*7378 FILLER_200_311
*7379 FILLER_200_317
*7380 FILLER_200_34
*7381 FILLER_200_37
*7382 FILLER_200_381
*7383 FILLER_200_387
*7384 FILLER_200_451
*7385 FILLER_200_457
*7386 FILLER_200_521
*7387 FILLER_200_527
*7388 FILLER_200_591
*7389 FILLER_200_597
*7390 FILLER_200_661
*7391 FILLER_200_667
*7392 FILLER_200_731
*7393 FILLER_200_737
*7394 FILLER_200_801
*7395 FILLER_200_807
*7396 FILLER_200_871
*7397 FILLER_200_877
*7398 FILLER_200_941
*7399 FILLER_200_947
*7400 FILLER_201_1046
*7401 FILLER_201_1052
*7402 FILLER_201_1116
*7403 FILLER_201_1122
*7404 FILLER_201_1186
*7405 FILLER_201_1192
*7406 FILLER_201_1256
*7407 FILLER_201_1262
*7408 FILLER_201_1326
*7409 FILLER_201_1332
*7410 FILLER_201_136
*7411 FILLER_201_1396
*7412 FILLER_201_1402
*7413 FILLER_201_142
*7414 FILLER_201_1466
*7415 FILLER_201_1472
*7416 FILLER_201_1536
*7417 FILLER_201_1542
*7418 FILLER_201_1606
*7419 FILLER_201_1612
*7420 FILLER_201_1676
*7421 FILLER_201_1682
*7422 FILLER_201_1746
*7423 FILLER_201_1752
*7424 FILLER_201_1816
*7425 FILLER_201_1822
*7426 FILLER_201_1886
*7427 FILLER_201_1892
*7428 FILLER_201_1924
*7429 FILLER_201_1932
*7430 FILLER_201_1936
*7431 FILLER_201_2
*7432 FILLER_201_206
*7433 FILLER_201_212
*7434 FILLER_201_276
*7435 FILLER_201_282
*7436 FILLER_201_346
*7437 FILLER_201_352
*7438 FILLER_201_416
*7439 FILLER_201_422
*7440 FILLER_201_486
*7441 FILLER_201_492
*7442 FILLER_201_556
*7443 FILLER_201_562
*7444 FILLER_201_626
*7445 FILLER_201_632
*7446 FILLER_201_66
*7447 FILLER_201_696
*7448 FILLER_201_702
*7449 FILLER_201_72
*7450 FILLER_201_766
*7451 FILLER_201_772
*7452 FILLER_201_836
*7453 FILLER_201_842
*7454 FILLER_201_906
*7455 FILLER_201_912
*7456 FILLER_201_976
*7457 FILLER_201_982
*7458 FILLER_202_101
*7459 FILLER_202_1011
*7460 FILLER_202_1017
*7461 FILLER_202_107
*7462 FILLER_202_1081
*7463 FILLER_202_1087
*7464 FILLER_202_1151
*7465 FILLER_202_1157
*7466 FILLER_202_1221
*7467 FILLER_202_1227
*7468 FILLER_202_1291
*7469 FILLER_202_1297
*7470 FILLER_202_1361
*7471 FILLER_202_1367
*7472 FILLER_202_1431
*7473 FILLER_202_1437
*7474 FILLER_202_1501
*7475 FILLER_202_1507
*7476 FILLER_202_1571
*7477 FILLER_202_1577
*7478 FILLER_202_1641
*7479 FILLER_202_1647
*7480 FILLER_202_171
*7481 FILLER_202_1711
*7482 FILLER_202_1717
*7483 FILLER_202_177
*7484 FILLER_202_1781
*7485 FILLER_202_1787
*7486 FILLER_202_1851
*7487 FILLER_202_1857
*7488 FILLER_202_1921
*7489 FILLER_202_1927
*7490 FILLER_202_1935
*7491 FILLER_202_1937
*7492 FILLER_202_2
*7493 FILLER_202_241
*7494 FILLER_202_247
*7495 FILLER_202_311
*7496 FILLER_202_317
*7497 FILLER_202_34
*7498 FILLER_202_37
*7499 FILLER_202_381
*7500 FILLER_202_387
*7501 FILLER_202_451
*7502 FILLER_202_457
*7503 FILLER_202_521
*7504 FILLER_202_527
*7505 FILLER_202_591
*7506 FILLER_202_597
*7507 FILLER_202_661
*7508 FILLER_202_667
*7509 FILLER_202_731
*7510 FILLER_202_737
*7511 FILLER_202_801
*7512 FILLER_202_807
*7513 FILLER_202_871
*7514 FILLER_202_877
*7515 FILLER_202_941
*7516 FILLER_202_947
*7517 FILLER_203_1046
*7518 FILLER_203_1052
*7519 FILLER_203_1116
*7520 FILLER_203_1122
*7521 FILLER_203_1186
*7522 FILLER_203_1192
*7523 FILLER_203_1256
*7524 FILLER_203_1262
*7525 FILLER_203_1326
*7526 FILLER_203_1332
*7527 FILLER_203_136
*7528 FILLER_203_1396
*7529 FILLER_203_1402
*7530 FILLER_203_142
*7531 FILLER_203_1466
*7532 FILLER_203_1472
*7533 FILLER_203_1536
*7534 FILLER_203_1542
*7535 FILLER_203_1606
*7536 FILLER_203_1612
*7537 FILLER_203_1676
*7538 FILLER_203_1682
*7539 FILLER_203_1746
*7540 FILLER_203_1752
*7541 FILLER_203_1816
*7542 FILLER_203_1822
*7543 FILLER_203_1886
*7544 FILLER_203_1892
*7545 FILLER_203_1924
*7546 FILLER_203_1932
*7547 FILLER_203_1936
*7548 FILLER_203_2
*7549 FILLER_203_206
*7550 FILLER_203_212
*7551 FILLER_203_276
*7552 FILLER_203_282
*7553 FILLER_203_346
*7554 FILLER_203_352
*7555 FILLER_203_416
*7556 FILLER_203_422
*7557 FILLER_203_486
*7558 FILLER_203_492
*7559 FILLER_203_556
*7560 FILLER_203_562
*7561 FILLER_203_626
*7562 FILLER_203_632
*7563 FILLER_203_66
*7564 FILLER_203_696
*7565 FILLER_203_702
*7566 FILLER_203_72
*7567 FILLER_203_766
*7568 FILLER_203_772
*7569 FILLER_203_836
*7570 FILLER_203_842
*7571 FILLER_203_906
*7572 FILLER_203_912
*7573 FILLER_203_976
*7574 FILLER_203_982
*7575 FILLER_204_101
*7576 FILLER_204_1011
*7577 FILLER_204_1017
*7578 FILLER_204_107
*7579 FILLER_204_1081
*7580 FILLER_204_1087
*7581 FILLER_204_1151
*7582 FILLER_204_1157
*7583 FILLER_204_1221
*7584 FILLER_204_1227
*7585 FILLER_204_1291
*7586 FILLER_204_1297
*7587 FILLER_204_1361
*7588 FILLER_204_1367
*7589 FILLER_204_1431
*7590 FILLER_204_1437
*7591 FILLER_204_1501
*7592 FILLER_204_1507
*7593 FILLER_204_1571
*7594 FILLER_204_1577
*7595 FILLER_204_1641
*7596 FILLER_204_1647
*7597 FILLER_204_171
*7598 FILLER_204_1711
*7599 FILLER_204_1717
*7600 FILLER_204_177
*7601 FILLER_204_1781
*7602 FILLER_204_1787
*7603 FILLER_204_1851
*7604 FILLER_204_1857
*7605 FILLER_204_1921
*7606 FILLER_204_1927
*7607 FILLER_204_1935
*7608 FILLER_204_1937
*7609 FILLER_204_2
*7610 FILLER_204_241
*7611 FILLER_204_247
*7612 FILLER_204_311
*7613 FILLER_204_317
*7614 FILLER_204_34
*7615 FILLER_204_37
*7616 FILLER_204_381
*7617 FILLER_204_387
*7618 FILLER_204_451
*7619 FILLER_204_457
*7620 FILLER_204_521
*7621 FILLER_204_527
*7622 FILLER_204_591
*7623 FILLER_204_597
*7624 FILLER_204_661
*7625 FILLER_204_667
*7626 FILLER_204_731
*7627 FILLER_204_737
*7628 FILLER_204_801
*7629 FILLER_204_807
*7630 FILLER_204_871
*7631 FILLER_204_877
*7632 FILLER_204_941
*7633 FILLER_204_947
*7634 FILLER_205_1046
*7635 FILLER_205_1052
*7636 FILLER_205_1116
*7637 FILLER_205_1122
*7638 FILLER_205_1186
*7639 FILLER_205_1192
*7640 FILLER_205_1256
*7641 FILLER_205_1262
*7642 FILLER_205_1326
*7643 FILLER_205_1332
*7644 FILLER_205_136
*7645 FILLER_205_1396
*7646 FILLER_205_1402
*7647 FILLER_205_142
*7648 FILLER_205_1466
*7649 FILLER_205_1472
*7650 FILLER_205_1536
*7651 FILLER_205_1542
*7652 FILLER_205_1606
*7653 FILLER_205_1612
*7654 FILLER_205_1676
*7655 FILLER_205_1682
*7656 FILLER_205_1746
*7657 FILLER_205_1752
*7658 FILLER_205_1816
*7659 FILLER_205_1822
*7660 FILLER_205_1886
*7661 FILLER_205_1892
*7662 FILLER_205_1924
*7663 FILLER_205_1932
*7664 FILLER_205_1936
*7665 FILLER_205_2
*7666 FILLER_205_206
*7667 FILLER_205_212
*7668 FILLER_205_276
*7669 FILLER_205_282
*7670 FILLER_205_346
*7671 FILLER_205_352
*7672 FILLER_205_416
*7673 FILLER_205_422
*7674 FILLER_205_486
*7675 FILLER_205_492
*7676 FILLER_205_556
*7677 FILLER_205_562
*7678 FILLER_205_626
*7679 FILLER_205_632
*7680 FILLER_205_66
*7681 FILLER_205_696
*7682 FILLER_205_702
*7683 FILLER_205_72
*7684 FILLER_205_766
*7685 FILLER_205_772
*7686 FILLER_205_836
*7687 FILLER_205_842
*7688 FILLER_205_906
*7689 FILLER_205_912
*7690 FILLER_205_976
*7691 FILLER_205_982
*7692 FILLER_206_101
*7693 FILLER_206_1011
*7694 FILLER_206_1017
*7695 FILLER_206_107
*7696 FILLER_206_1081
*7697 FILLER_206_1087
*7698 FILLER_206_1151
*7699 FILLER_206_1157
*7700 FILLER_206_1221
*7701 FILLER_206_1227
*7702 FILLER_206_1291
*7703 FILLER_206_1297
*7704 FILLER_206_1361
*7705 FILLER_206_1367
*7706 FILLER_206_1431
*7707 FILLER_206_1437
*7708 FILLER_206_1501
*7709 FILLER_206_1507
*7710 FILLER_206_1571
*7711 FILLER_206_1577
*7712 FILLER_206_1641
*7713 FILLER_206_1647
*7714 FILLER_206_171
*7715 FILLER_206_1711
*7716 FILLER_206_1717
*7717 FILLER_206_177
*7718 FILLER_206_1781
*7719 FILLER_206_1787
*7720 FILLER_206_1851
*7721 FILLER_206_1857
*7722 FILLER_206_1921
*7723 FILLER_206_1927
*7724 FILLER_206_1935
*7725 FILLER_206_1937
*7726 FILLER_206_2
*7727 FILLER_206_241
*7728 FILLER_206_247
*7729 FILLER_206_311
*7730 FILLER_206_317
*7731 FILLER_206_34
*7732 FILLER_206_37
*7733 FILLER_206_381
*7734 FILLER_206_387
*7735 FILLER_206_451
*7736 FILLER_206_457
*7737 FILLER_206_521
*7738 FILLER_206_527
*7739 FILLER_206_591
*7740 FILLER_206_597
*7741 FILLER_206_661
*7742 FILLER_206_667
*7743 FILLER_206_731
*7744 FILLER_206_737
*7745 FILLER_206_801
*7746 FILLER_206_807
*7747 FILLER_206_871
*7748 FILLER_206_877
*7749 FILLER_206_941
*7750 FILLER_206_947
*7751 FILLER_207_1046
*7752 FILLER_207_1052
*7753 FILLER_207_1116
*7754 FILLER_207_1122
*7755 FILLER_207_1186
*7756 FILLER_207_1192
*7757 FILLER_207_1256
*7758 FILLER_207_1262
*7759 FILLER_207_1326
*7760 FILLER_207_1332
*7761 FILLER_207_136
*7762 FILLER_207_1396
*7763 FILLER_207_1402
*7764 FILLER_207_142
*7765 FILLER_207_1466
*7766 FILLER_207_1472
*7767 FILLER_207_1536
*7768 FILLER_207_1542
*7769 FILLER_207_1606
*7770 FILLER_207_1612
*7771 FILLER_207_1676
*7772 FILLER_207_1682
*7773 FILLER_207_1746
*7774 FILLER_207_1752
*7775 FILLER_207_1816
*7776 FILLER_207_1822
*7777 FILLER_207_1886
*7778 FILLER_207_1892
*7779 FILLER_207_1924
*7780 FILLER_207_1932
*7781 FILLER_207_1936
*7782 FILLER_207_2
*7783 FILLER_207_206
*7784 FILLER_207_212
*7785 FILLER_207_276
*7786 FILLER_207_282
*7787 FILLER_207_346
*7788 FILLER_207_352
*7789 FILLER_207_416
*7790 FILLER_207_422
*7791 FILLER_207_486
*7792 FILLER_207_492
*7793 FILLER_207_556
*7794 FILLER_207_562
*7795 FILLER_207_626
*7796 FILLER_207_632
*7797 FILLER_207_66
*7798 FILLER_207_696
*7799 FILLER_207_702
*7800 FILLER_207_72
*7801 FILLER_207_766
*7802 FILLER_207_772
*7803 FILLER_207_836
*7804 FILLER_207_842
*7805 FILLER_207_906
*7806 FILLER_207_912
*7807 FILLER_207_976
*7808 FILLER_207_982
*7809 FILLER_208_101
*7810 FILLER_208_1011
*7811 FILLER_208_1017
*7812 FILLER_208_107
*7813 FILLER_208_1081
*7814 FILLER_208_1087
*7815 FILLER_208_1151
*7816 FILLER_208_1157
*7817 FILLER_208_1221
*7818 FILLER_208_1227
*7819 FILLER_208_1291
*7820 FILLER_208_1297
*7821 FILLER_208_1361
*7822 FILLER_208_1367
*7823 FILLER_208_1431
*7824 FILLER_208_1437
*7825 FILLER_208_1501
*7826 FILLER_208_1507
*7827 FILLER_208_1571
*7828 FILLER_208_1577
*7829 FILLER_208_1641
*7830 FILLER_208_1647
*7831 FILLER_208_171
*7832 FILLER_208_1711
*7833 FILLER_208_1717
*7834 FILLER_208_177
*7835 FILLER_208_1781
*7836 FILLER_208_1787
*7837 FILLER_208_1851
*7838 FILLER_208_1857
*7839 FILLER_208_1921
*7840 FILLER_208_1927
*7841 FILLER_208_1935
*7842 FILLER_208_1937
*7843 FILLER_208_2
*7844 FILLER_208_241
*7845 FILLER_208_247
*7846 FILLER_208_311
*7847 FILLER_208_317
*7848 FILLER_208_34
*7849 FILLER_208_37
*7850 FILLER_208_381
*7851 FILLER_208_387
*7852 FILLER_208_451
*7853 FILLER_208_457
*7854 FILLER_208_521
*7855 FILLER_208_527
*7856 FILLER_208_591
*7857 FILLER_208_597
*7858 FILLER_208_661
*7859 FILLER_208_667
*7860 FILLER_208_731
*7861 FILLER_208_737
*7862 FILLER_208_801
*7863 FILLER_208_807
*7864 FILLER_208_871
*7865 FILLER_208_877
*7866 FILLER_208_941
*7867 FILLER_208_947
*7868 FILLER_209_1046
*7869 FILLER_209_1052
*7870 FILLER_209_1116
*7871 FILLER_209_1122
*7872 FILLER_209_1186
*7873 FILLER_209_1192
*7874 FILLER_209_1256
*7875 FILLER_209_1262
*7876 FILLER_209_1326
*7877 FILLER_209_1332
*7878 FILLER_209_136
*7879 FILLER_209_1396
*7880 FILLER_209_1402
*7881 FILLER_209_142
*7882 FILLER_209_1466
*7883 FILLER_209_1472
*7884 FILLER_209_1536
*7885 FILLER_209_1542
*7886 FILLER_209_1606
*7887 FILLER_209_1612
*7888 FILLER_209_1676
*7889 FILLER_209_1682
*7890 FILLER_209_1746
*7891 FILLER_209_1752
*7892 FILLER_209_1816
*7893 FILLER_209_1822
*7894 FILLER_209_1886
*7895 FILLER_209_1892
*7896 FILLER_209_1924
*7897 FILLER_209_1932
*7898 FILLER_209_1936
*7899 FILLER_209_2
*7900 FILLER_209_206
*7901 FILLER_209_212
*7902 FILLER_209_276
*7903 FILLER_209_282
*7904 FILLER_209_346
*7905 FILLER_209_352
*7906 FILLER_209_416
*7907 FILLER_209_422
*7908 FILLER_209_486
*7909 FILLER_209_492
*7910 FILLER_209_556
*7911 FILLER_209_562
*7912 FILLER_209_626
*7913 FILLER_209_632
*7914 FILLER_209_66
*7915 FILLER_209_696
*7916 FILLER_209_702
*7917 FILLER_209_72
*7918 FILLER_209_766
*7919 FILLER_209_772
*7920 FILLER_209_836
*7921 FILLER_209_842
*7922 FILLER_209_906
*7923 FILLER_209_912
*7924 FILLER_209_976
*7925 FILLER_209_982
*7926 FILLER_20_101
*7927 FILLER_20_1011
*7928 FILLER_20_1017
*7929 FILLER_20_107
*7930 FILLER_20_1081
*7931 FILLER_20_1087
*7932 FILLER_20_1151
*7933 FILLER_20_1157
*7934 FILLER_20_1221
*7935 FILLER_20_1227
*7936 FILLER_20_1291
*7937 FILLER_20_1297
*7938 FILLER_20_1361
*7939 FILLER_20_1367
*7940 FILLER_20_1431
*7941 FILLER_20_1437
*7942 FILLER_20_1501
*7943 FILLER_20_1507
*7944 FILLER_20_1571
*7945 FILLER_20_1577
*7946 FILLER_20_1641
*7947 FILLER_20_1647
*7948 FILLER_20_171
*7949 FILLER_20_1711
*7950 FILLER_20_1717
*7951 FILLER_20_177
*7952 FILLER_20_1781
*7953 FILLER_20_1787
*7954 FILLER_20_1851
*7955 FILLER_20_1857
*7956 FILLER_20_1921
*7957 FILLER_20_1927
*7958 FILLER_20_1935
*7959 FILLER_20_1937
*7960 FILLER_20_2
*7961 FILLER_20_241
*7962 FILLER_20_247
*7963 FILLER_20_311
*7964 FILLER_20_317
*7965 FILLER_20_34
*7966 FILLER_20_37
*7967 FILLER_20_381
*7968 FILLER_20_387
*7969 FILLER_20_451
*7970 FILLER_20_457
*7971 FILLER_20_521
*7972 FILLER_20_527
*7973 FILLER_20_591
*7974 FILLER_20_597
*7975 FILLER_20_661
*7976 FILLER_20_667
*7977 FILLER_20_731
*7978 FILLER_20_737
*7979 FILLER_20_801
*7980 FILLER_20_807
*7981 FILLER_20_871
*7982 FILLER_20_877
*7983 FILLER_20_941
*7984 FILLER_20_947
*7985 FILLER_210_101
*7986 FILLER_210_1011
*7987 FILLER_210_1017
*7988 FILLER_210_107
*7989 FILLER_210_1081
*7990 FILLER_210_1087
*7991 FILLER_210_1151
*7992 FILLER_210_1157
*7993 FILLER_210_1221
*7994 FILLER_210_1227
*7995 FILLER_210_1291
*7996 FILLER_210_1297
*7997 FILLER_210_1361
*7998 FILLER_210_1367
*7999 FILLER_210_1431
*8000 FILLER_210_1437
*8001 FILLER_210_1501
*8002 FILLER_210_1507
*8003 FILLER_210_1571
*8004 FILLER_210_1577
*8005 FILLER_210_1641
*8006 FILLER_210_1647
*8007 FILLER_210_171
*8008 FILLER_210_1711
*8009 FILLER_210_1717
*8010 FILLER_210_177
*8011 FILLER_210_1781
*8012 FILLER_210_1787
*8013 FILLER_210_1851
*8014 FILLER_210_1857
*8015 FILLER_210_1921
*8016 FILLER_210_1927
*8017 FILLER_210_1935
*8018 FILLER_210_1937
*8019 FILLER_210_2
*8020 FILLER_210_241
*8021 FILLER_210_247
*8022 FILLER_210_311
*8023 FILLER_210_317
*8024 FILLER_210_34
*8025 FILLER_210_37
*8026 FILLER_210_381
*8027 FILLER_210_387
*8028 FILLER_210_451
*8029 FILLER_210_457
*8030 FILLER_210_521
*8031 FILLER_210_527
*8032 FILLER_210_591
*8033 FILLER_210_597
*8034 FILLER_210_661
*8035 FILLER_210_667
*8036 FILLER_210_731
*8037 FILLER_210_737
*8038 FILLER_210_801
*8039 FILLER_210_807
*8040 FILLER_210_871
*8041 FILLER_210_877
*8042 FILLER_210_941
*8043 FILLER_210_947
*8044 FILLER_211_1046
*8045 FILLER_211_1052
*8046 FILLER_211_1116
*8047 FILLER_211_1122
*8048 FILLER_211_1186
*8049 FILLER_211_1192
*8050 FILLER_211_1256
*8051 FILLER_211_1262
*8052 FILLER_211_1326
*8053 FILLER_211_1332
*8054 FILLER_211_136
*8055 FILLER_211_1396
*8056 FILLER_211_1402
*8057 FILLER_211_142
*8058 FILLER_211_1466
*8059 FILLER_211_1472
*8060 FILLER_211_1536
*8061 FILLER_211_1542
*8062 FILLER_211_1606
*8063 FILLER_211_1612
*8064 FILLER_211_1676
*8065 FILLER_211_1682
*8066 FILLER_211_1746
*8067 FILLER_211_1752
*8068 FILLER_211_1816
*8069 FILLER_211_1822
*8070 FILLER_211_1886
*8071 FILLER_211_1892
*8072 FILLER_211_1924
*8073 FILLER_211_1932
*8074 FILLER_211_1936
*8075 FILLER_211_2
*8076 FILLER_211_206
*8077 FILLER_211_212
*8078 FILLER_211_276
*8079 FILLER_211_282
*8080 FILLER_211_346
*8081 FILLER_211_352
*8082 FILLER_211_416
*8083 FILLER_211_422
*8084 FILLER_211_486
*8085 FILLER_211_492
*8086 FILLER_211_556
*8087 FILLER_211_562
*8088 FILLER_211_626
*8089 FILLER_211_632
*8090 FILLER_211_66
*8091 FILLER_211_696
*8092 FILLER_211_702
*8093 FILLER_211_72
*8094 FILLER_211_766
*8095 FILLER_211_772
*8096 FILLER_211_836
*8097 FILLER_211_842
*8098 FILLER_211_906
*8099 FILLER_211_912
*8100 FILLER_211_976
*8101 FILLER_211_982
*8102 FILLER_212_101
*8103 FILLER_212_1011
*8104 FILLER_212_1017
*8105 FILLER_212_107
*8106 FILLER_212_1081
*8107 FILLER_212_1087
*8108 FILLER_212_1151
*8109 FILLER_212_1157
*8110 FILLER_212_1221
*8111 FILLER_212_1227
*8112 FILLER_212_1291
*8113 FILLER_212_1297
*8114 FILLER_212_1361
*8115 FILLER_212_1367
*8116 FILLER_212_1431
*8117 FILLER_212_1437
*8118 FILLER_212_1501
*8119 FILLER_212_1507
*8120 FILLER_212_1571
*8121 FILLER_212_1577
*8122 FILLER_212_1641
*8123 FILLER_212_1647
*8124 FILLER_212_171
*8125 FILLER_212_1711
*8126 FILLER_212_1717
*8127 FILLER_212_177
*8128 FILLER_212_1781
*8129 FILLER_212_1787
*8130 FILLER_212_1851
*8131 FILLER_212_1857
*8132 FILLER_212_1921
*8133 FILLER_212_1927
*8134 FILLER_212_1935
*8135 FILLER_212_1937
*8136 FILLER_212_2
*8137 FILLER_212_241
*8138 FILLER_212_247
*8139 FILLER_212_311
*8140 FILLER_212_317
*8141 FILLER_212_34
*8142 FILLER_212_37
*8143 FILLER_212_381
*8144 FILLER_212_387
*8145 FILLER_212_451
*8146 FILLER_212_457
*8147 FILLER_212_521
*8148 FILLER_212_527
*8149 FILLER_212_591
*8150 FILLER_212_597
*8151 FILLER_212_661
*8152 FILLER_212_667
*8153 FILLER_212_731
*8154 FILLER_212_737
*8155 FILLER_212_801
*8156 FILLER_212_807
*8157 FILLER_212_871
*8158 FILLER_212_877
*8159 FILLER_212_941
*8160 FILLER_212_947
*8161 FILLER_213_1046
*8162 FILLER_213_1052
*8163 FILLER_213_1116
*8164 FILLER_213_1122
*8165 FILLER_213_1186
*8166 FILLER_213_1192
*8167 FILLER_213_1256
*8168 FILLER_213_1262
*8169 FILLER_213_1326
*8170 FILLER_213_1332
*8171 FILLER_213_136
*8172 FILLER_213_1396
*8173 FILLER_213_1402
*8174 FILLER_213_142
*8175 FILLER_213_1466
*8176 FILLER_213_1472
*8177 FILLER_213_1536
*8178 FILLER_213_1542
*8179 FILLER_213_1606
*8180 FILLER_213_1612
*8181 FILLER_213_1676
*8182 FILLER_213_1682
*8183 FILLER_213_1746
*8184 FILLER_213_1752
*8185 FILLER_213_1816
*8186 FILLER_213_1822
*8187 FILLER_213_1886
*8188 FILLER_213_1892
*8189 FILLER_213_1924
*8190 FILLER_213_1932
*8191 FILLER_213_1936
*8192 FILLER_213_2
*8193 FILLER_213_206
*8194 FILLER_213_212
*8195 FILLER_213_276
*8196 FILLER_213_282
*8197 FILLER_213_346
*8198 FILLER_213_352
*8199 FILLER_213_416
*8200 FILLER_213_422
*8201 FILLER_213_486
*8202 FILLER_213_492
*8203 FILLER_213_556
*8204 FILLER_213_562
*8205 FILLER_213_626
*8206 FILLER_213_632
*8207 FILLER_213_66
*8208 FILLER_213_696
*8209 FILLER_213_702
*8210 FILLER_213_72
*8211 FILLER_213_766
*8212 FILLER_213_772
*8213 FILLER_213_836
*8214 FILLER_213_842
*8215 FILLER_213_906
*8216 FILLER_213_912
*8217 FILLER_213_976
*8218 FILLER_213_982
*8219 FILLER_214_101
*8220 FILLER_214_1011
*8221 FILLER_214_1017
*8222 FILLER_214_107
*8223 FILLER_214_1081
*8224 FILLER_214_1087
*8225 FILLER_214_1151
*8226 FILLER_214_1157
*8227 FILLER_214_1221
*8228 FILLER_214_1227
*8229 FILLER_214_1291
*8230 FILLER_214_1297
*8231 FILLER_214_1361
*8232 FILLER_214_1367
*8233 FILLER_214_1431
*8234 FILLER_214_1437
*8235 FILLER_214_1501
*8236 FILLER_214_1507
*8237 FILLER_214_1571
*8238 FILLER_214_1577
*8239 FILLER_214_1641
*8240 FILLER_214_1647
*8241 FILLER_214_171
*8242 FILLER_214_1711
*8243 FILLER_214_1717
*8244 FILLER_214_177
*8245 FILLER_214_1781
*8246 FILLER_214_1787
*8247 FILLER_214_1851
*8248 FILLER_214_1857
*8249 FILLER_214_1921
*8250 FILLER_214_1927
*8251 FILLER_214_1935
*8252 FILLER_214_1937
*8253 FILLER_214_2
*8254 FILLER_214_241
*8255 FILLER_214_247
*8256 FILLER_214_311
*8257 FILLER_214_317
*8258 FILLER_214_34
*8259 FILLER_214_37
*8260 FILLER_214_381
*8261 FILLER_214_387
*8262 FILLER_214_451
*8263 FILLER_214_457
*8264 FILLER_214_521
*8265 FILLER_214_527
*8266 FILLER_214_591
*8267 FILLER_214_597
*8268 FILLER_214_661
*8269 FILLER_214_667
*8270 FILLER_214_731
*8271 FILLER_214_737
*8272 FILLER_214_801
*8273 FILLER_214_807
*8274 FILLER_214_871
*8275 FILLER_214_877
*8276 FILLER_214_941
*8277 FILLER_214_947
*8278 FILLER_215_1046
*8279 FILLER_215_1052
*8280 FILLER_215_1116
*8281 FILLER_215_1122
*8282 FILLER_215_1186
*8283 FILLER_215_1192
*8284 FILLER_215_1256
*8285 FILLER_215_1262
*8286 FILLER_215_1326
*8287 FILLER_215_1332
*8288 FILLER_215_136
*8289 FILLER_215_1396
*8290 FILLER_215_1402
*8291 FILLER_215_142
*8292 FILLER_215_1466
*8293 FILLER_215_1472
*8294 FILLER_215_1536
*8295 FILLER_215_1542
*8296 FILLER_215_1606
*8297 FILLER_215_1612
*8298 FILLER_215_1676
*8299 FILLER_215_1682
*8300 FILLER_215_1746
*8301 FILLER_215_1752
*8302 FILLER_215_1816
*8303 FILLER_215_1822
*8304 FILLER_215_1886
*8305 FILLER_215_1892
*8306 FILLER_215_1924
*8307 FILLER_215_1932
*8308 FILLER_215_1936
*8309 FILLER_215_2
*8310 FILLER_215_206
*8311 FILLER_215_212
*8312 FILLER_215_276
*8313 FILLER_215_282
*8314 FILLER_215_346
*8315 FILLER_215_352
*8316 FILLER_215_416
*8317 FILLER_215_422
*8318 FILLER_215_486
*8319 FILLER_215_492
*8320 FILLER_215_556
*8321 FILLER_215_562
*8322 FILLER_215_626
*8323 FILLER_215_632
*8324 FILLER_215_66
*8325 FILLER_215_696
*8326 FILLER_215_702
*8327 FILLER_215_72
*8328 FILLER_215_766
*8329 FILLER_215_772
*8330 FILLER_215_836
*8331 FILLER_215_842
*8332 FILLER_215_906
*8333 FILLER_215_912
*8334 FILLER_215_976
*8335 FILLER_215_982
*8336 FILLER_216_101
*8337 FILLER_216_1011
*8338 FILLER_216_1017
*8339 FILLER_216_107
*8340 FILLER_216_1081
*8341 FILLER_216_1087
*8342 FILLER_216_1151
*8343 FILLER_216_1157
*8344 FILLER_216_1221
*8345 FILLER_216_1227
*8346 FILLER_216_1291
*8347 FILLER_216_1297
*8348 FILLER_216_1361
*8349 FILLER_216_1367
*8350 FILLER_216_1431
*8351 FILLER_216_1437
*8352 FILLER_216_1501
*8353 FILLER_216_1507
*8354 FILLER_216_1571
*8355 FILLER_216_1577
*8356 FILLER_216_1641
*8357 FILLER_216_1647
*8358 FILLER_216_171
*8359 FILLER_216_1711
*8360 FILLER_216_1717
*8361 FILLER_216_177
*8362 FILLER_216_1781
*8363 FILLER_216_1787
*8364 FILLER_216_1851
*8365 FILLER_216_1857
*8366 FILLER_216_1921
*8367 FILLER_216_1927
*8368 FILLER_216_1935
*8369 FILLER_216_1937
*8370 FILLER_216_2
*8371 FILLER_216_241
*8372 FILLER_216_247
*8373 FILLER_216_311
*8374 FILLER_216_317
*8375 FILLER_216_34
*8376 FILLER_216_37
*8377 FILLER_216_381
*8378 FILLER_216_387
*8379 FILLER_216_451
*8380 FILLER_216_457
*8381 FILLER_216_521
*8382 FILLER_216_527
*8383 FILLER_216_591
*8384 FILLER_216_597
*8385 FILLER_216_661
*8386 FILLER_216_667
*8387 FILLER_216_731
*8388 FILLER_216_737
*8389 FILLER_216_801
*8390 FILLER_216_807
*8391 FILLER_216_871
*8392 FILLER_216_877
*8393 FILLER_216_941
*8394 FILLER_216_947
*8395 FILLER_217_1046
*8396 FILLER_217_1052
*8397 FILLER_217_1116
*8398 FILLER_217_1122
*8399 FILLER_217_1186
*8400 FILLER_217_1192
*8401 FILLER_217_1256
*8402 FILLER_217_1262
*8403 FILLER_217_1326
*8404 FILLER_217_1332
*8405 FILLER_217_136
*8406 FILLER_217_1396
*8407 FILLER_217_1402
*8408 FILLER_217_142
*8409 FILLER_217_1466
*8410 FILLER_217_1472
*8411 FILLER_217_1536
*8412 FILLER_217_1542
*8413 FILLER_217_1606
*8414 FILLER_217_1612
*8415 FILLER_217_1676
*8416 FILLER_217_1682
*8417 FILLER_217_1746
*8418 FILLER_217_1752
*8419 FILLER_217_1816
*8420 FILLER_217_1822
*8421 FILLER_217_1886
*8422 FILLER_217_1892
*8423 FILLER_217_1924
*8424 FILLER_217_1932
*8425 FILLER_217_1936
*8426 FILLER_217_2
*8427 FILLER_217_206
*8428 FILLER_217_212
*8429 FILLER_217_276
*8430 FILLER_217_282
*8431 FILLER_217_346
*8432 FILLER_217_352
*8433 FILLER_217_416
*8434 FILLER_217_422
*8435 FILLER_217_486
*8436 FILLER_217_492
*8437 FILLER_217_556
*8438 FILLER_217_562
*8439 FILLER_217_626
*8440 FILLER_217_632
*8441 FILLER_217_66
*8442 FILLER_217_696
*8443 FILLER_217_702
*8444 FILLER_217_72
*8445 FILLER_217_766
*8446 FILLER_217_772
*8447 FILLER_217_836
*8448 FILLER_217_842
*8449 FILLER_217_906
*8450 FILLER_217_912
*8451 FILLER_217_976
*8452 FILLER_217_982
*8453 FILLER_218_101
*8454 FILLER_218_1011
*8455 FILLER_218_1017
*8456 FILLER_218_107
*8457 FILLER_218_1081
*8458 FILLER_218_1087
*8459 FILLER_218_1151
*8460 FILLER_218_1157
*8461 FILLER_218_1221
*8462 FILLER_218_1227
*8463 FILLER_218_1291
*8464 FILLER_218_1297
*8465 FILLER_218_1361
*8466 FILLER_218_1367
*8467 FILLER_218_1431
*8468 FILLER_218_1437
*8469 FILLER_218_1501
*8470 FILLER_218_1507
*8471 FILLER_218_1571
*8472 FILLER_218_1577
*8473 FILLER_218_1641
*8474 FILLER_218_1647
*8475 FILLER_218_171
*8476 FILLER_218_1711
*8477 FILLER_218_1717
*8478 FILLER_218_177
*8479 FILLER_218_1781
*8480 FILLER_218_1787
*8481 FILLER_218_1851
*8482 FILLER_218_1857
*8483 FILLER_218_1921
*8484 FILLER_218_1927
*8485 FILLER_218_1935
*8486 FILLER_218_1937
*8487 FILLER_218_2
*8488 FILLER_218_241
*8489 FILLER_218_247
*8490 FILLER_218_311
*8491 FILLER_218_317
*8492 FILLER_218_34
*8493 FILLER_218_37
*8494 FILLER_218_381
*8495 FILLER_218_387
*8496 FILLER_218_451
*8497 FILLER_218_457
*8498 FILLER_218_521
*8499 FILLER_218_527
*8500 FILLER_218_591
*8501 FILLER_218_597
*8502 FILLER_218_661
*8503 FILLER_218_667
*8504 FILLER_218_731
*8505 FILLER_218_737
*8506 FILLER_218_801
*8507 FILLER_218_807
*8508 FILLER_218_871
*8509 FILLER_218_877
*8510 FILLER_218_941
*8511 FILLER_218_947
*8512 FILLER_219_1046
*8513 FILLER_219_1052
*8514 FILLER_219_1116
*8515 FILLER_219_1122
*8516 FILLER_219_1186
*8517 FILLER_219_1192
*8518 FILLER_219_1256
*8519 FILLER_219_1262
*8520 FILLER_219_1326
*8521 FILLER_219_1332
*8522 FILLER_219_136
*8523 FILLER_219_1396
*8524 FILLER_219_1402
*8525 FILLER_219_142
*8526 FILLER_219_1466
*8527 FILLER_219_1472
*8528 FILLER_219_1536
*8529 FILLER_219_1542
*8530 FILLER_219_1606
*8531 FILLER_219_1612
*8532 FILLER_219_1676
*8533 FILLER_219_1682
*8534 FILLER_219_1746
*8535 FILLER_219_1752
*8536 FILLER_219_1816
*8537 FILLER_219_1822
*8538 FILLER_219_1886
*8539 FILLER_219_1892
*8540 FILLER_219_1924
*8541 FILLER_219_1932
*8542 FILLER_219_1936
*8543 FILLER_219_2
*8544 FILLER_219_206
*8545 FILLER_219_212
*8546 FILLER_219_276
*8547 FILLER_219_282
*8548 FILLER_219_346
*8549 FILLER_219_352
*8550 FILLER_219_416
*8551 FILLER_219_422
*8552 FILLER_219_486
*8553 FILLER_219_492
*8554 FILLER_219_556
*8555 FILLER_219_562
*8556 FILLER_219_626
*8557 FILLER_219_632
*8558 FILLER_219_66
*8559 FILLER_219_696
*8560 FILLER_219_702
*8561 FILLER_219_72
*8562 FILLER_219_766
*8563 FILLER_219_772
*8564 FILLER_219_836
*8565 FILLER_219_842
*8566 FILLER_219_906
*8567 FILLER_219_912
*8568 FILLER_219_976
*8569 FILLER_219_982
*8570 FILLER_21_1046
*8571 FILLER_21_1052
*8572 FILLER_21_1116
*8573 FILLER_21_1122
*8574 FILLER_21_1186
*8575 FILLER_21_1192
*8576 FILLER_21_1256
*8577 FILLER_21_1262
*8578 FILLER_21_1326
*8579 FILLER_21_1332
*8580 FILLER_21_136
*8581 FILLER_21_1396
*8582 FILLER_21_1402
*8583 FILLER_21_142
*8584 FILLER_21_1466
*8585 FILLER_21_1472
*8586 FILLER_21_1536
*8587 FILLER_21_1542
*8588 FILLER_21_1606
*8589 FILLER_21_1612
*8590 FILLER_21_1676
*8591 FILLER_21_1682
*8592 FILLER_21_1746
*8593 FILLER_21_1752
*8594 FILLER_21_1816
*8595 FILLER_21_1822
*8596 FILLER_21_1886
*8597 FILLER_21_1892
*8598 FILLER_21_1924
*8599 FILLER_21_1932
*8600 FILLER_21_1936
*8601 FILLER_21_2
*8602 FILLER_21_206
*8603 FILLER_21_212
*8604 FILLER_21_276
*8605 FILLER_21_282
*8606 FILLER_21_346
*8607 FILLER_21_352
*8608 FILLER_21_416
*8609 FILLER_21_422
*8610 FILLER_21_486
*8611 FILLER_21_492
*8612 FILLER_21_556
*8613 FILLER_21_562
*8614 FILLER_21_626
*8615 FILLER_21_632
*8616 FILLER_21_66
*8617 FILLER_21_696
*8618 FILLER_21_702
*8619 FILLER_21_72
*8620 FILLER_21_766
*8621 FILLER_21_772
*8622 FILLER_21_836
*8623 FILLER_21_842
*8624 FILLER_21_906
*8625 FILLER_21_912
*8626 FILLER_21_976
*8627 FILLER_21_982
*8628 FILLER_220_101
*8629 FILLER_220_1011
*8630 FILLER_220_1017
*8631 FILLER_220_107
*8632 FILLER_220_1081
*8633 FILLER_220_1087
*8634 FILLER_220_1151
*8635 FILLER_220_1157
*8636 FILLER_220_1221
*8637 FILLER_220_1227
*8638 FILLER_220_1291
*8639 FILLER_220_1297
*8640 FILLER_220_1361
*8641 FILLER_220_1367
*8642 FILLER_220_1431
*8643 FILLER_220_1437
*8644 FILLER_220_1501
*8645 FILLER_220_1507
*8646 FILLER_220_1571
*8647 FILLER_220_1577
*8648 FILLER_220_1641
*8649 FILLER_220_1647
*8650 FILLER_220_171
*8651 FILLER_220_1711
*8652 FILLER_220_1717
*8653 FILLER_220_177
*8654 FILLER_220_1781
*8655 FILLER_220_1787
*8656 FILLER_220_1851
*8657 FILLER_220_1857
*8658 FILLER_220_1921
*8659 FILLER_220_1927
*8660 FILLER_220_1935
*8661 FILLER_220_1937
*8662 FILLER_220_2
*8663 FILLER_220_241
*8664 FILLER_220_247
*8665 FILLER_220_311
*8666 FILLER_220_317
*8667 FILLER_220_34
*8668 FILLER_220_37
*8669 FILLER_220_381
*8670 FILLER_220_387
*8671 FILLER_220_451
*8672 FILLER_220_457
*8673 FILLER_220_521
*8674 FILLER_220_527
*8675 FILLER_220_591
*8676 FILLER_220_597
*8677 FILLER_220_661
*8678 FILLER_220_667
*8679 FILLER_220_731
*8680 FILLER_220_737
*8681 FILLER_220_801
*8682 FILLER_220_807
*8683 FILLER_220_871
*8684 FILLER_220_877
*8685 FILLER_220_941
*8686 FILLER_220_947
*8687 FILLER_221_1046
*8688 FILLER_221_1052
*8689 FILLER_221_1116
*8690 FILLER_221_1122
*8691 FILLER_221_1186
*8692 FILLER_221_1192
*8693 FILLER_221_1256
*8694 FILLER_221_1262
*8695 FILLER_221_1326
*8696 FILLER_221_1332
*8697 FILLER_221_136
*8698 FILLER_221_1396
*8699 FILLER_221_1402
*8700 FILLER_221_142
*8701 FILLER_221_1466
*8702 FILLER_221_1472
*8703 FILLER_221_1536
*8704 FILLER_221_1542
*8705 FILLER_221_1606
*8706 FILLER_221_1612
*8707 FILLER_221_1676
*8708 FILLER_221_1682
*8709 FILLER_221_1746
*8710 FILLER_221_1752
*8711 FILLER_221_1816
*8712 FILLER_221_1822
*8713 FILLER_221_1886
*8714 FILLER_221_1892
*8715 FILLER_221_1924
*8716 FILLER_221_1932
*8717 FILLER_221_1936
*8718 FILLER_221_2
*8719 FILLER_221_206
*8720 FILLER_221_212
*8721 FILLER_221_276
*8722 FILLER_221_282
*8723 FILLER_221_346
*8724 FILLER_221_352
*8725 FILLER_221_416
*8726 FILLER_221_422
*8727 FILLER_221_486
*8728 FILLER_221_492
*8729 FILLER_221_556
*8730 FILLER_221_562
*8731 FILLER_221_626
*8732 FILLER_221_632
*8733 FILLER_221_66
*8734 FILLER_221_696
*8735 FILLER_221_702
*8736 FILLER_221_72
*8737 FILLER_221_766
*8738 FILLER_221_772
*8739 FILLER_221_836
*8740 FILLER_221_842
*8741 FILLER_221_906
*8742 FILLER_221_912
*8743 FILLER_221_976
*8744 FILLER_221_982
*8745 FILLER_222_101
*8746 FILLER_222_1011
*8747 FILLER_222_1017
*8748 FILLER_222_107
*8749 FILLER_222_1081
*8750 FILLER_222_1087
*8751 FILLER_222_1151
*8752 FILLER_222_1157
*8753 FILLER_222_1221
*8754 FILLER_222_1227
*8755 FILLER_222_1291
*8756 FILLER_222_1297
*8757 FILLER_222_1361
*8758 FILLER_222_1367
*8759 FILLER_222_1431
*8760 FILLER_222_1437
*8761 FILLER_222_1501
*8762 FILLER_222_1507
*8763 FILLER_222_1571
*8764 FILLER_222_1577
*8765 FILLER_222_1641
*8766 FILLER_222_1647
*8767 FILLER_222_171
*8768 FILLER_222_1711
*8769 FILLER_222_1717
*8770 FILLER_222_177
*8771 FILLER_222_1781
*8772 FILLER_222_1787
*8773 FILLER_222_1851
*8774 FILLER_222_1857
*8775 FILLER_222_1921
*8776 FILLER_222_1927
*8777 FILLER_222_1935
*8778 FILLER_222_1937
*8779 FILLER_222_2
*8780 FILLER_222_241
*8781 FILLER_222_247
*8782 FILLER_222_311
*8783 FILLER_222_317
*8784 FILLER_222_34
*8785 FILLER_222_37
*8786 FILLER_222_381
*8787 FILLER_222_387
*8788 FILLER_222_451
*8789 FILLER_222_457
*8790 FILLER_222_521
*8791 FILLER_222_527
*8792 FILLER_222_591
*8793 FILLER_222_597
*8794 FILLER_222_661
*8795 FILLER_222_667
*8796 FILLER_222_731
*8797 FILLER_222_737
*8798 FILLER_222_801
*8799 FILLER_222_807
*8800 FILLER_222_871
*8801 FILLER_222_877
*8802 FILLER_222_941
*8803 FILLER_222_947
*8804 FILLER_223_1046
*8805 FILLER_223_1052
*8806 FILLER_223_1116
*8807 FILLER_223_1122
*8808 FILLER_223_1186
*8809 FILLER_223_1192
*8810 FILLER_223_1256
*8811 FILLER_223_1262
*8812 FILLER_223_1326
*8813 FILLER_223_1332
*8814 FILLER_223_136
*8815 FILLER_223_1396
*8816 FILLER_223_1402
*8817 FILLER_223_142
*8818 FILLER_223_1466
*8819 FILLER_223_1472
*8820 FILLER_223_1536
*8821 FILLER_223_1542
*8822 FILLER_223_1606
*8823 FILLER_223_1612
*8824 FILLER_223_1676
*8825 FILLER_223_1682
*8826 FILLER_223_1746
*8827 FILLER_223_1752
*8828 FILLER_223_1816
*8829 FILLER_223_1822
*8830 FILLER_223_1886
*8831 FILLER_223_1892
*8832 FILLER_223_1924
*8833 FILLER_223_1932
*8834 FILLER_223_1936
*8835 FILLER_223_2
*8836 FILLER_223_206
*8837 FILLER_223_212
*8838 FILLER_223_276
*8839 FILLER_223_282
*8840 FILLER_223_346
*8841 FILLER_223_352
*8842 FILLER_223_416
*8843 FILLER_223_422
*8844 FILLER_223_486
*8845 FILLER_223_492
*8846 FILLER_223_556
*8847 FILLER_223_562
*8848 FILLER_223_626
*8849 FILLER_223_632
*8850 FILLER_223_66
*8851 FILLER_223_696
*8852 FILLER_223_702
*8853 FILLER_223_72
*8854 FILLER_223_766
*8855 FILLER_223_772
*8856 FILLER_223_836
*8857 FILLER_223_842
*8858 FILLER_223_906
*8859 FILLER_223_912
*8860 FILLER_223_976
*8861 FILLER_223_982
*8862 FILLER_224_101
*8863 FILLER_224_1011
*8864 FILLER_224_1017
*8865 FILLER_224_107
*8866 FILLER_224_1081
*8867 FILLER_224_1087
*8868 FILLER_224_1151
*8869 FILLER_224_1157
*8870 FILLER_224_1221
*8871 FILLER_224_1227
*8872 FILLER_224_1291
*8873 FILLER_224_1297
*8874 FILLER_224_1361
*8875 FILLER_224_1367
*8876 FILLER_224_1431
*8877 FILLER_224_1437
*8878 FILLER_224_1501
*8879 FILLER_224_1507
*8880 FILLER_224_1571
*8881 FILLER_224_1577
*8882 FILLER_224_1641
*8883 FILLER_224_1647
*8884 FILLER_224_171
*8885 FILLER_224_1711
*8886 FILLER_224_1717
*8887 FILLER_224_177
*8888 FILLER_224_1781
*8889 FILLER_224_1787
*8890 FILLER_224_1851
*8891 FILLER_224_1857
*8892 FILLER_224_1921
*8893 FILLER_224_1927
*8894 FILLER_224_1935
*8895 FILLER_224_1937
*8896 FILLER_224_2
*8897 FILLER_224_241
*8898 FILLER_224_247
*8899 FILLER_224_311
*8900 FILLER_224_317
*8901 FILLER_224_34
*8902 FILLER_224_37
*8903 FILLER_224_381
*8904 FILLER_224_387
*8905 FILLER_224_451
*8906 FILLER_224_457
*8907 FILLER_224_521
*8908 FILLER_224_527
*8909 FILLER_224_591
*8910 FILLER_224_597
*8911 FILLER_224_661
*8912 FILLER_224_667
*8913 FILLER_224_731
*8914 FILLER_224_737
*8915 FILLER_224_801
*8916 FILLER_224_807
*8917 FILLER_224_871
*8918 FILLER_224_877
*8919 FILLER_224_941
*8920 FILLER_224_947
*8921 FILLER_225_1046
*8922 FILLER_225_1052
*8923 FILLER_225_1116
*8924 FILLER_225_1122
*8925 FILLER_225_1186
*8926 FILLER_225_1192
*8927 FILLER_225_1256
*8928 FILLER_225_1262
*8929 FILLER_225_1326
*8930 FILLER_225_1332
*8931 FILLER_225_136
*8932 FILLER_225_1396
*8933 FILLER_225_1402
*8934 FILLER_225_142
*8935 FILLER_225_1466
*8936 FILLER_225_1472
*8937 FILLER_225_1536
*8938 FILLER_225_1542
*8939 FILLER_225_1606
*8940 FILLER_225_1612
*8941 FILLER_225_1676
*8942 FILLER_225_1682
*8943 FILLER_225_1746
*8944 FILLER_225_1752
*8945 FILLER_225_1816
*8946 FILLER_225_1822
*8947 FILLER_225_1886
*8948 FILLER_225_1892
*8949 FILLER_225_1924
*8950 FILLER_225_1932
*8951 FILLER_225_1936
*8952 FILLER_225_2
*8953 FILLER_225_206
*8954 FILLER_225_212
*8955 FILLER_225_276
*8956 FILLER_225_282
*8957 FILLER_225_346
*8958 FILLER_225_352
*8959 FILLER_225_416
*8960 FILLER_225_422
*8961 FILLER_225_486
*8962 FILLER_225_492
*8963 FILLER_225_556
*8964 FILLER_225_562
*8965 FILLER_225_626
*8966 FILLER_225_632
*8967 FILLER_225_66
*8968 FILLER_225_696
*8969 FILLER_225_702
*8970 FILLER_225_72
*8971 FILLER_225_766
*8972 FILLER_225_772
*8973 FILLER_225_836
*8974 FILLER_225_842
*8975 FILLER_225_906
*8976 FILLER_225_912
*8977 FILLER_225_976
*8978 FILLER_225_982
*8979 FILLER_226_101
*8980 FILLER_226_1011
*8981 FILLER_226_1017
*8982 FILLER_226_107
*8983 FILLER_226_1081
*8984 FILLER_226_1087
*8985 FILLER_226_1151
*8986 FILLER_226_1157
*8987 FILLER_226_1221
*8988 FILLER_226_1227
*8989 FILLER_226_1291
*8990 FILLER_226_1297
*8991 FILLER_226_1361
*8992 FILLER_226_1367
*8993 FILLER_226_1431
*8994 FILLER_226_1437
*8995 FILLER_226_1501
*8996 FILLER_226_1507
*8997 FILLER_226_1571
*8998 FILLER_226_1577
*8999 FILLER_226_1641
*9000 FILLER_226_1647
*9001 FILLER_226_171
*9002 FILLER_226_1711
*9003 FILLER_226_1717
*9004 FILLER_226_177
*9005 FILLER_226_1781
*9006 FILLER_226_1787
*9007 FILLER_226_1851
*9008 FILLER_226_1857
*9009 FILLER_226_1921
*9010 FILLER_226_1927
*9011 FILLER_226_1935
*9012 FILLER_226_1937
*9013 FILLER_226_2
*9014 FILLER_226_241
*9015 FILLER_226_247
*9016 FILLER_226_311
*9017 FILLER_226_317
*9018 FILLER_226_34
*9019 FILLER_226_37
*9020 FILLER_226_381
*9021 FILLER_226_387
*9022 FILLER_226_451
*9023 FILLER_226_457
*9024 FILLER_226_521
*9025 FILLER_226_527
*9026 FILLER_226_591
*9027 FILLER_226_597
*9028 FILLER_226_661
*9029 FILLER_226_667
*9030 FILLER_226_731
*9031 FILLER_226_737
*9032 FILLER_226_801
*9033 FILLER_226_807
*9034 FILLER_226_871
*9035 FILLER_226_877
*9036 FILLER_226_941
*9037 FILLER_226_947
*9038 FILLER_227_1046
*9039 FILLER_227_1052
*9040 FILLER_227_1116
*9041 FILLER_227_1122
*9042 FILLER_227_1186
*9043 FILLER_227_1192
*9044 FILLER_227_1256
*9045 FILLER_227_1262
*9046 FILLER_227_1326
*9047 FILLER_227_1332
*9048 FILLER_227_136
*9049 FILLER_227_1396
*9050 FILLER_227_1402
*9051 FILLER_227_142
*9052 FILLER_227_1466
*9053 FILLER_227_1472
*9054 FILLER_227_1536
*9055 FILLER_227_1542
*9056 FILLER_227_1606
*9057 FILLER_227_1612
*9058 FILLER_227_1676
*9059 FILLER_227_1682
*9060 FILLER_227_1746
*9061 FILLER_227_1752
*9062 FILLER_227_1816
*9063 FILLER_227_1822
*9064 FILLER_227_1886
*9065 FILLER_227_1892
*9066 FILLER_227_1924
*9067 FILLER_227_1932
*9068 FILLER_227_1936
*9069 FILLER_227_2
*9070 FILLER_227_206
*9071 FILLER_227_212
*9072 FILLER_227_276
*9073 FILLER_227_282
*9074 FILLER_227_346
*9075 FILLER_227_352
*9076 FILLER_227_416
*9077 FILLER_227_422
*9078 FILLER_227_486
*9079 FILLER_227_492
*9080 FILLER_227_556
*9081 FILLER_227_562
*9082 FILLER_227_626
*9083 FILLER_227_632
*9084 FILLER_227_66
*9085 FILLER_227_696
*9086 FILLER_227_702
*9087 FILLER_227_72
*9088 FILLER_227_766
*9089 FILLER_227_772
*9090 FILLER_227_836
*9091 FILLER_227_842
*9092 FILLER_227_906
*9093 FILLER_227_912
*9094 FILLER_227_976
*9095 FILLER_227_982
*9096 FILLER_228_101
*9097 FILLER_228_1011
*9098 FILLER_228_1017
*9099 FILLER_228_107
*9100 FILLER_228_1081
*9101 FILLER_228_1087
*9102 FILLER_228_1151
*9103 FILLER_228_1157
*9104 FILLER_228_1221
*9105 FILLER_228_1227
*9106 FILLER_228_1291
*9107 FILLER_228_1297
*9108 FILLER_228_1361
*9109 FILLER_228_1367
*9110 FILLER_228_1431
*9111 FILLER_228_1437
*9112 FILLER_228_1501
*9113 FILLER_228_1507
*9114 FILLER_228_1571
*9115 FILLER_228_1577
*9116 FILLER_228_1641
*9117 FILLER_228_1647
*9118 FILLER_228_171
*9119 FILLER_228_1711
*9120 FILLER_228_1717
*9121 FILLER_228_177
*9122 FILLER_228_1781
*9123 FILLER_228_1787
*9124 FILLER_228_1851
*9125 FILLER_228_1857
*9126 FILLER_228_1921
*9127 FILLER_228_1927
*9128 FILLER_228_1935
*9129 FILLER_228_1937
*9130 FILLER_228_2
*9131 FILLER_228_241
*9132 FILLER_228_247
*9133 FILLER_228_311
*9134 FILLER_228_317
*9135 FILLER_228_34
*9136 FILLER_228_37
*9137 FILLER_228_381
*9138 FILLER_228_387
*9139 FILLER_228_451
*9140 FILLER_228_457
*9141 FILLER_228_521
*9142 FILLER_228_527
*9143 FILLER_228_591
*9144 FILLER_228_597
*9145 FILLER_228_661
*9146 FILLER_228_667
*9147 FILLER_228_731
*9148 FILLER_228_737
*9149 FILLER_228_801
*9150 FILLER_228_807
*9151 FILLER_228_871
*9152 FILLER_228_877
*9153 FILLER_228_941
*9154 FILLER_228_947
*9155 FILLER_229_1046
*9156 FILLER_229_1052
*9157 FILLER_229_1116
*9158 FILLER_229_1122
*9159 FILLER_229_1186
*9160 FILLER_229_1192
*9161 FILLER_229_1256
*9162 FILLER_229_1262
*9163 FILLER_229_1326
*9164 FILLER_229_1332
*9165 FILLER_229_136
*9166 FILLER_229_1396
*9167 FILLER_229_1402
*9168 FILLER_229_142
*9169 FILLER_229_1466
*9170 FILLER_229_1472
*9171 FILLER_229_1536
*9172 FILLER_229_1542
*9173 FILLER_229_1606
*9174 FILLER_229_1612
*9175 FILLER_229_1676
*9176 FILLER_229_1682
*9177 FILLER_229_1746
*9178 FILLER_229_1752
*9179 FILLER_229_1816
*9180 FILLER_229_1822
*9181 FILLER_229_1886
*9182 FILLER_229_1892
*9183 FILLER_229_1924
*9184 FILLER_229_1932
*9185 FILLER_229_1936
*9186 FILLER_229_2
*9187 FILLER_229_206
*9188 FILLER_229_212
*9189 FILLER_229_276
*9190 FILLER_229_282
*9191 FILLER_229_346
*9192 FILLER_229_352
*9193 FILLER_229_416
*9194 FILLER_229_422
*9195 FILLER_229_486
*9196 FILLER_229_492
*9197 FILLER_229_556
*9198 FILLER_229_562
*9199 FILLER_229_626
*9200 FILLER_229_632
*9201 FILLER_229_66
*9202 FILLER_229_696
*9203 FILLER_229_702
*9204 FILLER_229_72
*9205 FILLER_229_766
*9206 FILLER_229_772
*9207 FILLER_229_836
*9208 FILLER_229_842
*9209 FILLER_229_906
*9210 FILLER_229_912
*9211 FILLER_229_976
*9212 FILLER_229_982
*9213 FILLER_22_101
*9214 FILLER_22_1011
*9215 FILLER_22_1017
*9216 FILLER_22_107
*9217 FILLER_22_1081
*9218 FILLER_22_1087
*9219 FILLER_22_1151
*9220 FILLER_22_1157
*9221 FILLER_22_1221
*9222 FILLER_22_1227
*9223 FILLER_22_1291
*9224 FILLER_22_1297
*9225 FILLER_22_1361
*9226 FILLER_22_1367
*9227 FILLER_22_1431
*9228 FILLER_22_1437
*9229 FILLER_22_1501
*9230 FILLER_22_1507
*9231 FILLER_22_1571
*9232 FILLER_22_1577
*9233 FILLER_22_1641
*9234 FILLER_22_1647
*9235 FILLER_22_171
*9236 FILLER_22_1711
*9237 FILLER_22_1717
*9238 FILLER_22_177
*9239 FILLER_22_1781
*9240 FILLER_22_1787
*9241 FILLER_22_1851
*9242 FILLER_22_1857
*9243 FILLER_22_1921
*9244 FILLER_22_1927
*9245 FILLER_22_1935
*9246 FILLER_22_1937
*9247 FILLER_22_2
*9248 FILLER_22_241
*9249 FILLER_22_247
*9250 FILLER_22_311
*9251 FILLER_22_317
*9252 FILLER_22_34
*9253 FILLER_22_37
*9254 FILLER_22_381
*9255 FILLER_22_387
*9256 FILLER_22_451
*9257 FILLER_22_457
*9258 FILLER_22_521
*9259 FILLER_22_527
*9260 FILLER_22_591
*9261 FILLER_22_597
*9262 FILLER_22_661
*9263 FILLER_22_667
*9264 FILLER_22_731
*9265 FILLER_22_737
*9266 FILLER_22_801
*9267 FILLER_22_807
*9268 FILLER_22_871
*9269 FILLER_22_877
*9270 FILLER_22_941
*9271 FILLER_22_947
*9272 FILLER_230_101
*9273 FILLER_230_1011
*9274 FILLER_230_1017
*9275 FILLER_230_107
*9276 FILLER_230_1081
*9277 FILLER_230_1087
*9278 FILLER_230_1151
*9279 FILLER_230_1157
*9280 FILLER_230_1221
*9281 FILLER_230_1227
*9282 FILLER_230_1291
*9283 FILLER_230_1297
*9284 FILLER_230_1361
*9285 FILLER_230_1367
*9286 FILLER_230_1431
*9287 FILLER_230_1437
*9288 FILLER_230_1501
*9289 FILLER_230_1507
*9290 FILLER_230_1571
*9291 FILLER_230_1577
*9292 FILLER_230_1641
*9293 FILLER_230_1647
*9294 FILLER_230_171
*9295 FILLER_230_1711
*9296 FILLER_230_1717
*9297 FILLER_230_177
*9298 FILLER_230_1781
*9299 FILLER_230_1787
*9300 FILLER_230_1851
*9301 FILLER_230_1857
*9302 FILLER_230_1921
*9303 FILLER_230_1927
*9304 FILLER_230_1935
*9305 FILLER_230_1937
*9306 FILLER_230_2
*9307 FILLER_230_241
*9308 FILLER_230_247
*9309 FILLER_230_311
*9310 FILLER_230_317
*9311 FILLER_230_34
*9312 FILLER_230_37
*9313 FILLER_230_381
*9314 FILLER_230_387
*9315 FILLER_230_451
*9316 FILLER_230_457
*9317 FILLER_230_521
*9318 FILLER_230_527
*9319 FILLER_230_591
*9320 FILLER_230_597
*9321 FILLER_230_661
*9322 FILLER_230_667
*9323 FILLER_230_731
*9324 FILLER_230_737
*9325 FILLER_230_801
*9326 FILLER_230_807
*9327 FILLER_230_871
*9328 FILLER_230_877
*9329 FILLER_230_941
*9330 FILLER_230_947
*9331 FILLER_231_1046
*9332 FILLER_231_1052
*9333 FILLER_231_1116
*9334 FILLER_231_1122
*9335 FILLER_231_1186
*9336 FILLER_231_1192
*9337 FILLER_231_1256
*9338 FILLER_231_1262
*9339 FILLER_231_1326
*9340 FILLER_231_1332
*9341 FILLER_231_136
*9342 FILLER_231_1396
*9343 FILLER_231_1402
*9344 FILLER_231_142
*9345 FILLER_231_1466
*9346 FILLER_231_1472
*9347 FILLER_231_1536
*9348 FILLER_231_1542
*9349 FILLER_231_1606
*9350 FILLER_231_1612
*9351 FILLER_231_1676
*9352 FILLER_231_1682
*9353 FILLER_231_1746
*9354 FILLER_231_1752
*9355 FILLER_231_1816
*9356 FILLER_231_1822
*9357 FILLER_231_1886
*9358 FILLER_231_1892
*9359 FILLER_231_1924
*9360 FILLER_231_1932
*9361 FILLER_231_1936
*9362 FILLER_231_2
*9363 FILLER_231_206
*9364 FILLER_231_212
*9365 FILLER_231_276
*9366 FILLER_231_282
*9367 FILLER_231_346
*9368 FILLER_231_352
*9369 FILLER_231_416
*9370 FILLER_231_422
*9371 FILLER_231_486
*9372 FILLER_231_492
*9373 FILLER_231_556
*9374 FILLER_231_562
*9375 FILLER_231_626
*9376 FILLER_231_632
*9377 FILLER_231_66
*9378 FILLER_231_696
*9379 FILLER_231_702
*9380 FILLER_231_72
*9381 FILLER_231_766
*9382 FILLER_231_772
*9383 FILLER_231_836
*9384 FILLER_231_842
*9385 FILLER_231_906
*9386 FILLER_231_912
*9387 FILLER_231_976
*9388 FILLER_231_982
*9389 FILLER_232_101
*9390 FILLER_232_1011
*9391 FILLER_232_1017
*9392 FILLER_232_107
*9393 FILLER_232_1081
*9394 FILLER_232_1087
*9395 FILLER_232_1151
*9396 FILLER_232_1157
*9397 FILLER_232_1221
*9398 FILLER_232_1227
*9399 FILLER_232_1291
*9400 FILLER_232_1297
*9401 FILLER_232_1361
*9402 FILLER_232_1367
*9403 FILLER_232_1431
*9404 FILLER_232_1437
*9405 FILLER_232_1501
*9406 FILLER_232_1507
*9407 FILLER_232_1571
*9408 FILLER_232_1577
*9409 FILLER_232_1641
*9410 FILLER_232_1647
*9411 FILLER_232_171
*9412 FILLER_232_1711
*9413 FILLER_232_1717
*9414 FILLER_232_177
*9415 FILLER_232_1781
*9416 FILLER_232_1787
*9417 FILLER_232_1851
*9418 FILLER_232_1857
*9419 FILLER_232_1921
*9420 FILLER_232_1927
*9421 FILLER_232_1935
*9422 FILLER_232_1937
*9423 FILLER_232_2
*9424 FILLER_232_241
*9425 FILLER_232_247
*9426 FILLER_232_311
*9427 FILLER_232_317
*9428 FILLER_232_34
*9429 FILLER_232_37
*9430 FILLER_232_381
*9431 FILLER_232_387
*9432 FILLER_232_451
*9433 FILLER_232_457
*9434 FILLER_232_521
*9435 FILLER_232_527
*9436 FILLER_232_591
*9437 FILLER_232_597
*9438 FILLER_232_661
*9439 FILLER_232_667
*9440 FILLER_232_731
*9441 FILLER_232_737
*9442 FILLER_232_801
*9443 FILLER_232_807
*9444 FILLER_232_871
*9445 FILLER_232_877
*9446 FILLER_232_941
*9447 FILLER_232_947
*9448 FILLER_233_1046
*9449 FILLER_233_1052
*9450 FILLER_233_1116
*9451 FILLER_233_1122
*9452 FILLER_233_1186
*9453 FILLER_233_1192
*9454 FILLER_233_1256
*9455 FILLER_233_1262
*9456 FILLER_233_1326
*9457 FILLER_233_1332
*9458 FILLER_233_136
*9459 FILLER_233_1396
*9460 FILLER_233_1402
*9461 FILLER_233_142
*9462 FILLER_233_1466
*9463 FILLER_233_1472
*9464 FILLER_233_1536
*9465 FILLER_233_1542
*9466 FILLER_233_1606
*9467 FILLER_233_1612
*9468 FILLER_233_1676
*9469 FILLER_233_1682
*9470 FILLER_233_1746
*9471 FILLER_233_1752
*9472 FILLER_233_1816
*9473 FILLER_233_1822
*9474 FILLER_233_1886
*9475 FILLER_233_1892
*9476 FILLER_233_1924
*9477 FILLER_233_1932
*9478 FILLER_233_1936
*9479 FILLER_233_2
*9480 FILLER_233_206
*9481 FILLER_233_212
*9482 FILLER_233_276
*9483 FILLER_233_282
*9484 FILLER_233_346
*9485 FILLER_233_352
*9486 FILLER_233_416
*9487 FILLER_233_422
*9488 FILLER_233_486
*9489 FILLER_233_492
*9490 FILLER_233_556
*9491 FILLER_233_562
*9492 FILLER_233_626
*9493 FILLER_233_632
*9494 FILLER_233_66
*9495 FILLER_233_696
*9496 FILLER_233_702
*9497 FILLER_233_72
*9498 FILLER_233_766
*9499 FILLER_233_772
*9500 FILLER_233_836
*9501 FILLER_233_842
*9502 FILLER_233_906
*9503 FILLER_233_912
*9504 FILLER_233_976
*9505 FILLER_233_982
*9506 FILLER_234_101
*9507 FILLER_234_1011
*9508 FILLER_234_1017
*9509 FILLER_234_107
*9510 FILLER_234_1081
*9511 FILLER_234_1087
*9512 FILLER_234_1151
*9513 FILLER_234_1157
*9514 FILLER_234_1221
*9515 FILLER_234_1227
*9516 FILLER_234_1291
*9517 FILLER_234_1297
*9518 FILLER_234_1361
*9519 FILLER_234_1367
*9520 FILLER_234_1431
*9521 FILLER_234_1437
*9522 FILLER_234_1501
*9523 FILLER_234_1507
*9524 FILLER_234_1571
*9525 FILLER_234_1577
*9526 FILLER_234_1641
*9527 FILLER_234_1647
*9528 FILLER_234_171
*9529 FILLER_234_1711
*9530 FILLER_234_1717
*9531 FILLER_234_177
*9532 FILLER_234_1781
*9533 FILLER_234_1787
*9534 FILLER_234_1851
*9535 FILLER_234_1857
*9536 FILLER_234_1921
*9537 FILLER_234_1927
*9538 FILLER_234_1935
*9539 FILLER_234_1937
*9540 FILLER_234_2
*9541 FILLER_234_241
*9542 FILLER_234_247
*9543 FILLER_234_311
*9544 FILLER_234_317
*9545 FILLER_234_34
*9546 FILLER_234_37
*9547 FILLER_234_381
*9548 FILLER_234_387
*9549 FILLER_234_451
*9550 FILLER_234_457
*9551 FILLER_234_521
*9552 FILLER_234_527
*9553 FILLER_234_591
*9554 FILLER_234_597
*9555 FILLER_234_661
*9556 FILLER_234_667
*9557 FILLER_234_731
*9558 FILLER_234_737
*9559 FILLER_234_801
*9560 FILLER_234_807
*9561 FILLER_234_871
*9562 FILLER_234_877
*9563 FILLER_234_941
*9564 FILLER_234_947
*9565 FILLER_235_1046
*9566 FILLER_235_1052
*9567 FILLER_235_1116
*9568 FILLER_235_1122
*9569 FILLER_235_1186
*9570 FILLER_235_1192
*9571 FILLER_235_1256
*9572 FILLER_235_1262
*9573 FILLER_235_1326
*9574 FILLER_235_1332
*9575 FILLER_235_136
*9576 FILLER_235_1396
*9577 FILLER_235_1402
*9578 FILLER_235_142
*9579 FILLER_235_1466
*9580 FILLER_235_1472
*9581 FILLER_235_1536
*9582 FILLER_235_1542
*9583 FILLER_235_1606
*9584 FILLER_235_1612
*9585 FILLER_235_1676
*9586 FILLER_235_1682
*9587 FILLER_235_1746
*9588 FILLER_235_1752
*9589 FILLER_235_1816
*9590 FILLER_235_1822
*9591 FILLER_235_1886
*9592 FILLER_235_1892
*9593 FILLER_235_1924
*9594 FILLER_235_1932
*9595 FILLER_235_1936
*9596 FILLER_235_2
*9597 FILLER_235_206
*9598 FILLER_235_212
*9599 FILLER_235_276
*9600 FILLER_235_282
*9601 FILLER_235_346
*9602 FILLER_235_352
*9603 FILLER_235_416
*9604 FILLER_235_422
*9605 FILLER_235_486
*9606 FILLER_235_492
*9607 FILLER_235_556
*9608 FILLER_235_562
*9609 FILLER_235_626
*9610 FILLER_235_632
*9611 FILLER_235_66
*9612 FILLER_235_696
*9613 FILLER_235_702
*9614 FILLER_235_72
*9615 FILLER_235_766
*9616 FILLER_235_772
*9617 FILLER_235_836
*9618 FILLER_235_842
*9619 FILLER_235_906
*9620 FILLER_235_912
*9621 FILLER_235_976
*9622 FILLER_235_982
*9623 FILLER_236_101
*9624 FILLER_236_1011
*9625 FILLER_236_1017
*9626 FILLER_236_107
*9627 FILLER_236_1081
*9628 FILLER_236_1087
*9629 FILLER_236_1151
*9630 FILLER_236_1157
*9631 FILLER_236_1221
*9632 FILLER_236_1227
*9633 FILLER_236_1291
*9634 FILLER_236_1297
*9635 FILLER_236_1361
*9636 FILLER_236_1367
*9637 FILLER_236_1431
*9638 FILLER_236_1437
*9639 FILLER_236_1501
*9640 FILLER_236_1507
*9641 FILLER_236_1571
*9642 FILLER_236_1577
*9643 FILLER_236_1641
*9644 FILLER_236_1647
*9645 FILLER_236_171
*9646 FILLER_236_1711
*9647 FILLER_236_1717
*9648 FILLER_236_177
*9649 FILLER_236_1781
*9650 FILLER_236_1787
*9651 FILLER_236_1851
*9652 FILLER_236_1857
*9653 FILLER_236_1921
*9654 FILLER_236_1927
*9655 FILLER_236_1935
*9656 FILLER_236_1937
*9657 FILLER_236_2
*9658 FILLER_236_241
*9659 FILLER_236_247
*9660 FILLER_236_311
*9661 FILLER_236_317
*9662 FILLER_236_34
*9663 FILLER_236_37
*9664 FILLER_236_381
*9665 FILLER_236_387
*9666 FILLER_236_451
*9667 FILLER_236_457
*9668 FILLER_236_521
*9669 FILLER_236_527
*9670 FILLER_236_591
*9671 FILLER_236_597
*9672 FILLER_236_661
*9673 FILLER_236_667
*9674 FILLER_236_731
*9675 FILLER_236_737
*9676 FILLER_236_801
*9677 FILLER_236_807
*9678 FILLER_236_871
*9679 FILLER_236_877
*9680 FILLER_236_941
*9681 FILLER_236_947
*9682 FILLER_237_1046
*9683 FILLER_237_1052
*9684 FILLER_237_1116
*9685 FILLER_237_1122
*9686 FILLER_237_1186
*9687 FILLER_237_1192
*9688 FILLER_237_1256
*9689 FILLER_237_1262
*9690 FILLER_237_1326
*9691 FILLER_237_1332
*9692 FILLER_237_136
*9693 FILLER_237_1396
*9694 FILLER_237_1402
*9695 FILLER_237_142
*9696 FILLER_237_1466
*9697 FILLER_237_1472
*9698 FILLER_237_1536
*9699 FILLER_237_1542
*9700 FILLER_237_1606
*9701 FILLER_237_1612
*9702 FILLER_237_1676
*9703 FILLER_237_1682
*9704 FILLER_237_1746
*9705 FILLER_237_1752
*9706 FILLER_237_1816
*9707 FILLER_237_1822
*9708 FILLER_237_1886
*9709 FILLER_237_1892
*9710 FILLER_237_1924
*9711 FILLER_237_1932
*9712 FILLER_237_1936
*9713 FILLER_237_2
*9714 FILLER_237_206
*9715 FILLER_237_212
*9716 FILLER_237_276
*9717 FILLER_237_282
*9718 FILLER_237_346
*9719 FILLER_237_352
*9720 FILLER_237_416
*9721 FILLER_237_422
*9722 FILLER_237_486
*9723 FILLER_237_492
*9724 FILLER_237_556
*9725 FILLER_237_562
*9726 FILLER_237_626
*9727 FILLER_237_632
*9728 FILLER_237_66
*9729 FILLER_237_696
*9730 FILLER_237_702
*9731 FILLER_237_72
*9732 FILLER_237_766
*9733 FILLER_237_772
*9734 FILLER_237_836
*9735 FILLER_237_842
*9736 FILLER_237_906
*9737 FILLER_237_912
*9738 FILLER_237_976
*9739 FILLER_237_982
*9740 FILLER_238_101
*9741 FILLER_238_1011
*9742 FILLER_238_1017
*9743 FILLER_238_107
*9744 FILLER_238_1081
*9745 FILLER_238_1087
*9746 FILLER_238_1151
*9747 FILLER_238_1157
*9748 FILLER_238_1221
*9749 FILLER_238_1227
*9750 FILLER_238_1291
*9751 FILLER_238_1297
*9752 FILLER_238_1361
*9753 FILLER_238_1367
*9754 FILLER_238_1431
*9755 FILLER_238_1437
*9756 FILLER_238_1501
*9757 FILLER_238_1507
*9758 FILLER_238_1571
*9759 FILLER_238_1577
*9760 FILLER_238_1641
*9761 FILLER_238_1647
*9762 FILLER_238_171
*9763 FILLER_238_1711
*9764 FILLER_238_1717
*9765 FILLER_238_177
*9766 FILLER_238_1781
*9767 FILLER_238_1787
*9768 FILLER_238_1851
*9769 FILLER_238_1857
*9770 FILLER_238_1921
*9771 FILLER_238_1927
*9772 FILLER_238_1935
*9773 FILLER_238_1937
*9774 FILLER_238_2
*9775 FILLER_238_241
*9776 FILLER_238_247
*9777 FILLER_238_311
*9778 FILLER_238_317
*9779 FILLER_238_34
*9780 FILLER_238_37
*9781 FILLER_238_381
*9782 FILLER_238_387
*9783 FILLER_238_451
*9784 FILLER_238_457
*9785 FILLER_238_521
*9786 FILLER_238_527
*9787 FILLER_238_591
*9788 FILLER_238_597
*9789 FILLER_238_661
*9790 FILLER_238_667
*9791 FILLER_238_731
*9792 FILLER_238_737
*9793 FILLER_238_801
*9794 FILLER_238_807
*9795 FILLER_238_871
*9796 FILLER_238_877
*9797 FILLER_238_941
*9798 FILLER_238_947
*9799 FILLER_239_1046
*9800 FILLER_239_1052
*9801 FILLER_239_1116
*9802 FILLER_239_1122
*9803 FILLER_239_1186
*9804 FILLER_239_1192
*9805 FILLER_239_1256
*9806 FILLER_239_1262
*9807 FILLER_239_1326
*9808 FILLER_239_1332
*9809 FILLER_239_136
*9810 FILLER_239_1396
*9811 FILLER_239_1402
*9812 FILLER_239_142
*9813 FILLER_239_1466
*9814 FILLER_239_1472
*9815 FILLER_239_1536
*9816 FILLER_239_1542
*9817 FILLER_239_1606
*9818 FILLER_239_1612
*9819 FILLER_239_1676
*9820 FILLER_239_1682
*9821 FILLER_239_1746
*9822 FILLER_239_1752
*9823 FILLER_239_1816
*9824 FILLER_239_1822
*9825 FILLER_239_1886
*9826 FILLER_239_1892
*9827 FILLER_239_1924
*9828 FILLER_239_1932
*9829 FILLER_239_1936
*9830 FILLER_239_2
*9831 FILLER_239_206
*9832 FILLER_239_212
*9833 FILLER_239_276
*9834 FILLER_239_282
*9835 FILLER_239_346
*9836 FILLER_239_352
*9837 FILLER_239_416
*9838 FILLER_239_422
*9839 FILLER_239_486
*9840 FILLER_239_492
*9841 FILLER_239_556
*9842 FILLER_239_562
*9843 FILLER_239_626
*9844 FILLER_239_632
*9845 FILLER_239_66
*9846 FILLER_239_696
*9847 FILLER_239_702
*9848 FILLER_239_72
*9849 FILLER_239_766
*9850 FILLER_239_772
*9851 FILLER_239_836
*9852 FILLER_239_842
*9853 FILLER_239_906
*9854 FILLER_239_912
*9855 FILLER_239_976
*9856 FILLER_239_982
*9857 FILLER_23_1046
*9858 FILLER_23_1052
*9859 FILLER_23_1116
*9860 FILLER_23_1122
*9861 FILLER_23_1186
*9862 FILLER_23_1192
*9863 FILLER_23_1256
*9864 FILLER_23_1262
*9865 FILLER_23_1326
*9866 FILLER_23_1332
*9867 FILLER_23_136
*9868 FILLER_23_1396
*9869 FILLER_23_1402
*9870 FILLER_23_142
*9871 FILLER_23_1466
*9872 FILLER_23_1472
*9873 FILLER_23_1536
*9874 FILLER_23_1542
*9875 FILLER_23_1606
*9876 FILLER_23_1612
*9877 FILLER_23_1676
*9878 FILLER_23_1682
*9879 FILLER_23_1746
*9880 FILLER_23_1752
*9881 FILLER_23_1816
*9882 FILLER_23_1822
*9883 FILLER_23_1886
*9884 FILLER_23_1892
*9885 FILLER_23_1924
*9886 FILLER_23_1932
*9887 FILLER_23_1936
*9888 FILLER_23_2
*9889 FILLER_23_206
*9890 FILLER_23_212
*9891 FILLER_23_276
*9892 FILLER_23_282
*9893 FILLER_23_346
*9894 FILLER_23_352
*9895 FILLER_23_416
*9896 FILLER_23_422
*9897 FILLER_23_486
*9898 FILLER_23_492
*9899 FILLER_23_556
*9900 FILLER_23_562
*9901 FILLER_23_626
*9902 FILLER_23_632
*9903 FILLER_23_66
*9904 FILLER_23_696
*9905 FILLER_23_702
*9906 FILLER_23_72
*9907 FILLER_23_766
*9908 FILLER_23_772
*9909 FILLER_23_836
*9910 FILLER_23_842
*9911 FILLER_23_906
*9912 FILLER_23_912
*9913 FILLER_23_976
*9914 FILLER_23_982
*9915 FILLER_240_101
*9916 FILLER_240_1011
*9917 FILLER_240_1017
*9918 FILLER_240_107
*9919 FILLER_240_1081
*9920 FILLER_240_1087
*9921 FILLER_240_1151
*9922 FILLER_240_1157
*9923 FILLER_240_1221
*9924 FILLER_240_1227
*9925 FILLER_240_1291
*9926 FILLER_240_1297
*9927 FILLER_240_1361
*9928 FILLER_240_1367
*9929 FILLER_240_1431
*9930 FILLER_240_1437
*9931 FILLER_240_1501
*9932 FILLER_240_1507
*9933 FILLER_240_1571
*9934 FILLER_240_1577
*9935 FILLER_240_1641
*9936 FILLER_240_1647
*9937 FILLER_240_171
*9938 FILLER_240_1711
*9939 FILLER_240_1717
*9940 FILLER_240_177
*9941 FILLER_240_1781
*9942 FILLER_240_1787
*9943 FILLER_240_1851
*9944 FILLER_240_1857
*9945 FILLER_240_1921
*9946 FILLER_240_1927
*9947 FILLER_240_1935
*9948 FILLER_240_1937
*9949 FILLER_240_2
*9950 FILLER_240_241
*9951 FILLER_240_247
*9952 FILLER_240_311
*9953 FILLER_240_317
*9954 FILLER_240_34
*9955 FILLER_240_37
*9956 FILLER_240_381
*9957 FILLER_240_387
*9958 FILLER_240_451
*9959 FILLER_240_457
*9960 FILLER_240_521
*9961 FILLER_240_527
*9962 FILLER_240_591
*9963 FILLER_240_597
*9964 FILLER_240_661
*9965 FILLER_240_667
*9966 FILLER_240_731
*9967 FILLER_240_737
*9968 FILLER_240_801
*9969 FILLER_240_807
*9970 FILLER_240_871
*9971 FILLER_240_877
*9972 FILLER_240_941
*9973 FILLER_240_947
*9974 FILLER_241_1046
*9975 FILLER_241_1052
*9976 FILLER_241_1116
*9977 FILLER_241_1122
*9978 FILLER_241_1186
*9979 FILLER_241_1192
*9980 FILLER_241_1256
*9981 FILLER_241_1262
*9982 FILLER_241_1326
*9983 FILLER_241_1332
*9984 FILLER_241_136
*9985 FILLER_241_1396
*9986 FILLER_241_1402
*9987 FILLER_241_142
*9988 FILLER_241_1466
*9989 FILLER_241_1472
*9990 FILLER_241_1536
*9991 FILLER_241_1542
*9992 FILLER_241_1606
*9993 FILLER_241_1612
*9994 FILLER_241_1676
*9995 FILLER_241_1682
*9996 FILLER_241_1746
*9997 FILLER_241_1752
*9998 FILLER_241_1816
*9999 FILLER_241_1822
*10000 FILLER_241_1886
*10001 FILLER_241_1892
*10002 FILLER_241_1924
*10003 FILLER_241_1932
*10004 FILLER_241_1936
*10005 FILLER_241_2
*10006 FILLER_241_206
*10007 FILLER_241_212
*10008 FILLER_241_276
*10009 FILLER_241_282
*10010 FILLER_241_346
*10011 FILLER_241_352
*10012 FILLER_241_416
*10013 FILLER_241_422
*10014 FILLER_241_486
*10015 FILLER_241_492
*10016 FILLER_241_556
*10017 FILLER_241_562
*10018 FILLER_241_626
*10019 FILLER_241_632
*10020 FILLER_241_66
*10021 FILLER_241_696
*10022 FILLER_241_702
*10023 FILLER_241_72
*10024 FILLER_241_766
*10025 FILLER_241_772
*10026 FILLER_241_836
*10027 FILLER_241_842
*10028 FILLER_241_906
*10029 FILLER_241_912
*10030 FILLER_241_976
*10031 FILLER_241_982
*10032 FILLER_242_101
*10033 FILLER_242_1011
*10034 FILLER_242_1017
*10035 FILLER_242_107
*10036 FILLER_242_1081
*10037 FILLER_242_1087
*10038 FILLER_242_1151
*10039 FILLER_242_1157
*10040 FILLER_242_1221
*10041 FILLER_242_1227
*10042 FILLER_242_1291
*10043 FILLER_242_1297
*10044 FILLER_242_1361
*10045 FILLER_242_1367
*10046 FILLER_242_1431
*10047 FILLER_242_1437
*10048 FILLER_242_1501
*10049 FILLER_242_1507
*10050 FILLER_242_1571
*10051 FILLER_242_1577
*10052 FILLER_242_1641
*10053 FILLER_242_1647
*10054 FILLER_242_171
*10055 FILLER_242_1711
*10056 FILLER_242_1717
*10057 FILLER_242_177
*10058 FILLER_242_1781
*10059 FILLER_242_1787
*10060 FILLER_242_1851
*10061 FILLER_242_1857
*10062 FILLER_242_1921
*10063 FILLER_242_1927
*10064 FILLER_242_1935
*10065 FILLER_242_1937
*10066 FILLER_242_2
*10067 FILLER_242_241
*10068 FILLER_242_247
*10069 FILLER_242_311
*10070 FILLER_242_317
*10071 FILLER_242_34
*10072 FILLER_242_37
*10073 FILLER_242_381
*10074 FILLER_242_387
*10075 FILLER_242_451
*10076 FILLER_242_457
*10077 FILLER_242_521
*10078 FILLER_242_527
*10079 FILLER_242_591
*10080 FILLER_242_597
*10081 FILLER_242_661
*10082 FILLER_242_667
*10083 FILLER_242_731
*10084 FILLER_242_737
*10085 FILLER_242_801
*10086 FILLER_242_807
*10087 FILLER_242_871
*10088 FILLER_242_877
*10089 FILLER_242_941
*10090 FILLER_242_947
*10091 FILLER_243_1046
*10092 FILLER_243_1052
*10093 FILLER_243_1116
*10094 FILLER_243_1122
*10095 FILLER_243_1186
*10096 FILLER_243_1192
*10097 FILLER_243_1256
*10098 FILLER_243_1262
*10099 FILLER_243_1326
*10100 FILLER_243_1332
*10101 FILLER_243_136
*10102 FILLER_243_1396
*10103 FILLER_243_1402
*10104 FILLER_243_142
*10105 FILLER_243_1466
*10106 FILLER_243_1472
*10107 FILLER_243_1536
*10108 FILLER_243_1542
*10109 FILLER_243_1606
*10110 FILLER_243_1612
*10111 FILLER_243_1676
*10112 FILLER_243_1682
*10113 FILLER_243_1746
*10114 FILLER_243_1752
*10115 FILLER_243_1816
*10116 FILLER_243_1822
*10117 FILLER_243_1886
*10118 FILLER_243_1892
*10119 FILLER_243_1924
*10120 FILLER_243_1932
*10121 FILLER_243_1936
*10122 FILLER_243_2
*10123 FILLER_243_206
*10124 FILLER_243_212
*10125 FILLER_243_276
*10126 FILLER_243_282
*10127 FILLER_243_346
*10128 FILLER_243_352
*10129 FILLER_243_416
*10130 FILLER_243_422
*10131 FILLER_243_486
*10132 FILLER_243_492
*10133 FILLER_243_556
*10134 FILLER_243_562
*10135 FILLER_243_626
*10136 FILLER_243_632
*10137 FILLER_243_66
*10138 FILLER_243_696
*10139 FILLER_243_702
*10140 FILLER_243_72
*10141 FILLER_243_766
*10142 FILLER_243_772
*10143 FILLER_243_836
*10144 FILLER_243_842
*10145 FILLER_243_906
*10146 FILLER_243_912
*10147 FILLER_243_976
*10148 FILLER_243_982
*10149 FILLER_244_101
*10150 FILLER_244_1011
*10151 FILLER_244_1017
*10152 FILLER_244_107
*10153 FILLER_244_1081
*10154 FILLER_244_1087
*10155 FILLER_244_1151
*10156 FILLER_244_1157
*10157 FILLER_244_1221
*10158 FILLER_244_1227
*10159 FILLER_244_1291
*10160 FILLER_244_1297
*10161 FILLER_244_1361
*10162 FILLER_244_1367
*10163 FILLER_244_1431
*10164 FILLER_244_1437
*10165 FILLER_244_1501
*10166 FILLER_244_1507
*10167 FILLER_244_1571
*10168 FILLER_244_1577
*10169 FILLER_244_1641
*10170 FILLER_244_1647
*10171 FILLER_244_171
*10172 FILLER_244_1711
*10173 FILLER_244_1717
*10174 FILLER_244_177
*10175 FILLER_244_1781
*10176 FILLER_244_1787
*10177 FILLER_244_1851
*10178 FILLER_244_1857
*10179 FILLER_244_1921
*10180 FILLER_244_1927
*10181 FILLER_244_1935
*10182 FILLER_244_1937
*10183 FILLER_244_2
*10184 FILLER_244_241
*10185 FILLER_244_247
*10186 FILLER_244_311
*10187 FILLER_244_317
*10188 FILLER_244_34
*10189 FILLER_244_37
*10190 FILLER_244_381
*10191 FILLER_244_387
*10192 FILLER_244_451
*10193 FILLER_244_457
*10194 FILLER_244_521
*10195 FILLER_244_527
*10196 FILLER_244_591
*10197 FILLER_244_597
*10198 FILLER_244_661
*10199 FILLER_244_667
*10200 FILLER_244_731
*10201 FILLER_244_737
*10202 FILLER_244_801
*10203 FILLER_244_807
*10204 FILLER_244_871
*10205 FILLER_244_877
*10206 FILLER_244_941
*10207 FILLER_244_947
*10208 FILLER_245_1046
*10209 FILLER_245_1052
*10210 FILLER_245_1116
*10211 FILLER_245_1122
*10212 FILLER_245_1186
*10213 FILLER_245_1192
*10214 FILLER_245_1256
*10215 FILLER_245_1262
*10216 FILLER_245_1326
*10217 FILLER_245_1332
*10218 FILLER_245_136
*10219 FILLER_245_1396
*10220 FILLER_245_1402
*10221 FILLER_245_142
*10222 FILLER_245_1466
*10223 FILLER_245_1472
*10224 FILLER_245_1536
*10225 FILLER_245_1542
*10226 FILLER_245_1606
*10227 FILLER_245_1612
*10228 FILLER_245_1676
*10229 FILLER_245_1682
*10230 FILLER_245_1746
*10231 FILLER_245_1752
*10232 FILLER_245_1816
*10233 FILLER_245_1822
*10234 FILLER_245_1886
*10235 FILLER_245_1892
*10236 FILLER_245_1924
*10237 FILLER_245_1932
*10238 FILLER_245_1936
*10239 FILLER_245_2
*10240 FILLER_245_206
*10241 FILLER_245_212
*10242 FILLER_245_276
*10243 FILLER_245_282
*10244 FILLER_245_346
*10245 FILLER_245_352
*10246 FILLER_245_416
*10247 FILLER_245_422
*10248 FILLER_245_486
*10249 FILLER_245_492
*10250 FILLER_245_556
*10251 FILLER_245_562
*10252 FILLER_245_626
*10253 FILLER_245_632
*10254 FILLER_245_66
*10255 FILLER_245_696
*10256 FILLER_245_702
*10257 FILLER_245_72
*10258 FILLER_245_766
*10259 FILLER_245_772
*10260 FILLER_245_836
*10261 FILLER_245_842
*10262 FILLER_245_906
*10263 FILLER_245_912
*10264 FILLER_245_976
*10265 FILLER_245_982
*10266 FILLER_246_101
*10267 FILLER_246_1011
*10268 FILLER_246_1017
*10269 FILLER_246_107
*10270 FILLER_246_1081
*10271 FILLER_246_1087
*10272 FILLER_246_1151
*10273 FILLER_246_1157
*10274 FILLER_246_1221
*10275 FILLER_246_1227
*10276 FILLER_246_1291
*10277 FILLER_246_1297
*10278 FILLER_246_1361
*10279 FILLER_246_1367
*10280 FILLER_246_1431
*10281 FILLER_246_1437
*10282 FILLER_246_1501
*10283 FILLER_246_1507
*10284 FILLER_246_1571
*10285 FILLER_246_1577
*10286 FILLER_246_1641
*10287 FILLER_246_1647
*10288 FILLER_246_171
*10289 FILLER_246_1711
*10290 FILLER_246_1717
*10291 FILLER_246_177
*10292 FILLER_246_1781
*10293 FILLER_246_1787
*10294 FILLER_246_1851
*10295 FILLER_246_1857
*10296 FILLER_246_1921
*10297 FILLER_246_1927
*10298 FILLER_246_1935
*10299 FILLER_246_1937
*10300 FILLER_246_2
*10301 FILLER_246_241
*10302 FILLER_246_247
*10303 FILLER_246_311
*10304 FILLER_246_317
*10305 FILLER_246_34
*10306 FILLER_246_37
*10307 FILLER_246_381
*10308 FILLER_246_387
*10309 FILLER_246_451
*10310 FILLER_246_457
*10311 FILLER_246_521
*10312 FILLER_246_527
*10313 FILLER_246_591
*10314 FILLER_246_597
*10315 FILLER_246_661
*10316 FILLER_246_667
*10317 FILLER_246_731
*10318 FILLER_246_737
*10319 FILLER_246_801
*10320 FILLER_246_807
*10321 FILLER_246_871
*10322 FILLER_246_877
*10323 FILLER_246_941
*10324 FILLER_246_947
*10325 FILLER_247_1046
*10326 FILLER_247_1052
*10327 FILLER_247_1116
*10328 FILLER_247_1122
*10329 FILLER_247_1186
*10330 FILLER_247_1192
*10331 FILLER_247_1256
*10332 FILLER_247_1262
*10333 FILLER_247_1326
*10334 FILLER_247_1332
*10335 FILLER_247_136
*10336 FILLER_247_1396
*10337 FILLER_247_1402
*10338 FILLER_247_142
*10339 FILLER_247_1466
*10340 FILLER_247_1472
*10341 FILLER_247_1536
*10342 FILLER_247_1542
*10343 FILLER_247_1606
*10344 FILLER_247_1612
*10345 FILLER_247_1676
*10346 FILLER_247_1682
*10347 FILLER_247_1746
*10348 FILLER_247_1752
*10349 FILLER_247_1816
*10350 FILLER_247_1822
*10351 FILLER_247_1886
*10352 FILLER_247_1892
*10353 FILLER_247_1924
*10354 FILLER_247_1932
*10355 FILLER_247_1936
*10356 FILLER_247_2
*10357 FILLER_247_206
*10358 FILLER_247_212
*10359 FILLER_247_276
*10360 FILLER_247_282
*10361 FILLER_247_346
*10362 FILLER_247_352
*10363 FILLER_247_416
*10364 FILLER_247_422
*10365 FILLER_247_486
*10366 FILLER_247_492
*10367 FILLER_247_556
*10368 FILLER_247_562
*10369 FILLER_247_626
*10370 FILLER_247_632
*10371 FILLER_247_66
*10372 FILLER_247_696
*10373 FILLER_247_702
*10374 FILLER_247_72
*10375 FILLER_247_766
*10376 FILLER_247_772
*10377 FILLER_247_836
*10378 FILLER_247_842
*10379 FILLER_247_906
*10380 FILLER_247_912
*10381 FILLER_247_976
*10382 FILLER_247_982
*10383 FILLER_248_101
*10384 FILLER_248_1011
*10385 FILLER_248_1017
*10386 FILLER_248_107
*10387 FILLER_248_1081
*10388 FILLER_248_1087
*10389 FILLER_248_1151
*10390 FILLER_248_1157
*10391 FILLER_248_1221
*10392 FILLER_248_1227
*10393 FILLER_248_1291
*10394 FILLER_248_1297
*10395 FILLER_248_1361
*10396 FILLER_248_1367
*10397 FILLER_248_1431
*10398 FILLER_248_1437
*10399 FILLER_248_1501
*10400 FILLER_248_1507
*10401 FILLER_248_1571
*10402 FILLER_248_1577
*10403 FILLER_248_1641
*10404 FILLER_248_1647
*10405 FILLER_248_171
*10406 FILLER_248_1711
*10407 FILLER_248_1717
*10408 FILLER_248_177
*10409 FILLER_248_1781
*10410 FILLER_248_1787
*10411 FILLER_248_1851
*10412 FILLER_248_1857
*10413 FILLER_248_1921
*10414 FILLER_248_1927
*10415 FILLER_248_1935
*10416 FILLER_248_1937
*10417 FILLER_248_2
*10418 FILLER_248_241
*10419 FILLER_248_247
*10420 FILLER_248_311
*10421 FILLER_248_317
*10422 FILLER_248_34
*10423 FILLER_248_37
*10424 FILLER_248_381
*10425 FILLER_248_387
*10426 FILLER_248_451
*10427 FILLER_248_457
*10428 FILLER_248_521
*10429 FILLER_248_527
*10430 FILLER_248_591
*10431 FILLER_248_597
*10432 FILLER_248_661
*10433 FILLER_248_667
*10434 FILLER_248_731
*10435 FILLER_248_737
*10436 FILLER_248_801
*10437 FILLER_248_807
*10438 FILLER_248_871
*10439 FILLER_248_877
*10440 FILLER_248_941
*10441 FILLER_248_947
*10442 FILLER_249_1046
*10443 FILLER_249_1052
*10444 FILLER_249_1116
*10445 FILLER_249_1122
*10446 FILLER_249_1186
*10447 FILLER_249_1192
*10448 FILLER_249_1256
*10449 FILLER_249_1262
*10450 FILLER_249_1326
*10451 FILLER_249_1332
*10452 FILLER_249_136
*10453 FILLER_249_1396
*10454 FILLER_249_1402
*10455 FILLER_249_142
*10456 FILLER_249_1466
*10457 FILLER_249_1472
*10458 FILLER_249_1536
*10459 FILLER_249_1542
*10460 FILLER_249_1606
*10461 FILLER_249_1612
*10462 FILLER_249_1676
*10463 FILLER_249_1682
*10464 FILLER_249_1746
*10465 FILLER_249_1752
*10466 FILLER_249_1816
*10467 FILLER_249_1822
*10468 FILLER_249_1886
*10469 FILLER_249_1892
*10470 FILLER_249_1924
*10471 FILLER_249_1932
*10472 FILLER_249_1936
*10473 FILLER_249_2
*10474 FILLER_249_206
*10475 FILLER_249_212
*10476 FILLER_249_276
*10477 FILLER_249_282
*10478 FILLER_249_346
*10479 FILLER_249_352
*10480 FILLER_249_416
*10481 FILLER_249_422
*10482 FILLER_249_486
*10483 FILLER_249_492
*10484 FILLER_249_556
*10485 FILLER_249_562
*10486 FILLER_249_626
*10487 FILLER_249_632
*10488 FILLER_249_66
*10489 FILLER_249_696
*10490 FILLER_249_702
*10491 FILLER_249_72
*10492 FILLER_249_766
*10493 FILLER_249_772
*10494 FILLER_249_836
*10495 FILLER_249_842
*10496 FILLER_249_906
*10497 FILLER_249_912
*10498 FILLER_249_976
*10499 FILLER_249_982
*10500 FILLER_24_101
*10501 FILLER_24_1011
*10502 FILLER_24_1017
*10503 FILLER_24_107
*10504 FILLER_24_1081
*10505 FILLER_24_1087
*10506 FILLER_24_1151
*10507 FILLER_24_1157
*10508 FILLER_24_1221
*10509 FILLER_24_1227
*10510 FILLER_24_1291
*10511 FILLER_24_1297
*10512 FILLER_24_1361
*10513 FILLER_24_1367
*10514 FILLER_24_1431
*10515 FILLER_24_1437
*10516 FILLER_24_1501
*10517 FILLER_24_1507
*10518 FILLER_24_1571
*10519 FILLER_24_1577
*10520 FILLER_24_1641
*10521 FILLER_24_1647
*10522 FILLER_24_171
*10523 FILLER_24_1711
*10524 FILLER_24_1717
*10525 FILLER_24_177
*10526 FILLER_24_1781
*10527 FILLER_24_1787
*10528 FILLER_24_1851
*10529 FILLER_24_1857
*10530 FILLER_24_1921
*10531 FILLER_24_1927
*10532 FILLER_24_1935
*10533 FILLER_24_1937
*10534 FILLER_24_2
*10535 FILLER_24_241
*10536 FILLER_24_247
*10537 FILLER_24_311
*10538 FILLER_24_317
*10539 FILLER_24_34
*10540 FILLER_24_37
*10541 FILLER_24_381
*10542 FILLER_24_387
*10543 FILLER_24_451
*10544 FILLER_24_457
*10545 FILLER_24_521
*10546 FILLER_24_527
*10547 FILLER_24_591
*10548 FILLER_24_597
*10549 FILLER_24_661
*10550 FILLER_24_667
*10551 FILLER_24_731
*10552 FILLER_24_737
*10553 FILLER_24_801
*10554 FILLER_24_807
*10555 FILLER_24_871
*10556 FILLER_24_877
*10557 FILLER_24_941
*10558 FILLER_24_947
*10559 FILLER_250_101
*10560 FILLER_250_1011
*10561 FILLER_250_1017
*10562 FILLER_250_107
*10563 FILLER_250_1081
*10564 FILLER_250_1087
*10565 FILLER_250_1151
*10566 FILLER_250_1157
*10567 FILLER_250_1221
*10568 FILLER_250_1227
*10569 FILLER_250_1291
*10570 FILLER_250_1297
*10571 FILLER_250_1361
*10572 FILLER_250_1367
*10573 FILLER_250_1431
*10574 FILLER_250_1437
*10575 FILLER_250_1501
*10576 FILLER_250_1507
*10577 FILLER_250_1571
*10578 FILLER_250_1577
*10579 FILLER_250_1641
*10580 FILLER_250_1647
*10581 FILLER_250_171
*10582 FILLER_250_1711
*10583 FILLER_250_1717
*10584 FILLER_250_177
*10585 FILLER_250_1781
*10586 FILLER_250_1787
*10587 FILLER_250_1851
*10588 FILLER_250_1857
*10589 FILLER_250_1921
*10590 FILLER_250_1927
*10591 FILLER_250_1935
*10592 FILLER_250_1937
*10593 FILLER_250_2
*10594 FILLER_250_241
*10595 FILLER_250_247
*10596 FILLER_250_311
*10597 FILLER_250_317
*10598 FILLER_250_34
*10599 FILLER_250_37
*10600 FILLER_250_381
*10601 FILLER_250_387
*10602 FILLER_250_451
*10603 FILLER_250_457
*10604 FILLER_250_521
*10605 FILLER_250_527
*10606 FILLER_250_591
*10607 FILLER_250_597
*10608 FILLER_250_661
*10609 FILLER_250_667
*10610 FILLER_250_731
*10611 FILLER_250_737
*10612 FILLER_250_801
*10613 FILLER_250_807
*10614 FILLER_250_871
*10615 FILLER_250_877
*10616 FILLER_250_941
*10617 FILLER_250_947
*10618 FILLER_251_1046
*10619 FILLER_251_1052
*10620 FILLER_251_1116
*10621 FILLER_251_1122
*10622 FILLER_251_1186
*10623 FILLER_251_1192
*10624 FILLER_251_1256
*10625 FILLER_251_1262
*10626 FILLER_251_1326
*10627 FILLER_251_1332
*10628 FILLER_251_136
*10629 FILLER_251_1396
*10630 FILLER_251_1402
*10631 FILLER_251_142
*10632 FILLER_251_1466
*10633 FILLER_251_1472
*10634 FILLER_251_1536
*10635 FILLER_251_1542
*10636 FILLER_251_1606
*10637 FILLER_251_1612
*10638 FILLER_251_1676
*10639 FILLER_251_1682
*10640 FILLER_251_1746
*10641 FILLER_251_1752
*10642 FILLER_251_1816
*10643 FILLER_251_1822
*10644 FILLER_251_1886
*10645 FILLER_251_1892
*10646 FILLER_251_1924
*10647 FILLER_251_1932
*10648 FILLER_251_1936
*10649 FILLER_251_2
*10650 FILLER_251_206
*10651 FILLER_251_212
*10652 FILLER_251_276
*10653 FILLER_251_282
*10654 FILLER_251_346
*10655 FILLER_251_352
*10656 FILLER_251_416
*10657 FILLER_251_422
*10658 FILLER_251_486
*10659 FILLER_251_492
*10660 FILLER_251_556
*10661 FILLER_251_562
*10662 FILLER_251_626
*10663 FILLER_251_632
*10664 FILLER_251_66
*10665 FILLER_251_696
*10666 FILLER_251_702
*10667 FILLER_251_72
*10668 FILLER_251_766
*10669 FILLER_251_772
*10670 FILLER_251_836
*10671 FILLER_251_842
*10672 FILLER_251_906
*10673 FILLER_251_912
*10674 FILLER_251_976
*10675 FILLER_251_982
*10676 FILLER_252_101
*10677 FILLER_252_1011
*10678 FILLER_252_1017
*10679 FILLER_252_107
*10680 FILLER_252_1081
*10681 FILLER_252_1087
*10682 FILLER_252_1151
*10683 FILLER_252_1157
*10684 FILLER_252_1221
*10685 FILLER_252_1227
*10686 FILLER_252_1291
*10687 FILLER_252_1297
*10688 FILLER_252_1361
*10689 FILLER_252_1367
*10690 FILLER_252_1431
*10691 FILLER_252_1437
*10692 FILLER_252_1501
*10693 FILLER_252_1507
*10694 FILLER_252_1571
*10695 FILLER_252_1577
*10696 FILLER_252_1641
*10697 FILLER_252_1647
*10698 FILLER_252_171
*10699 FILLER_252_1711
*10700 FILLER_252_1717
*10701 FILLER_252_177
*10702 FILLER_252_1781
*10703 FILLER_252_1787
*10704 FILLER_252_1851
*10705 FILLER_252_1857
*10706 FILLER_252_1921
*10707 FILLER_252_1927
*10708 FILLER_252_1935
*10709 FILLER_252_1937
*10710 FILLER_252_2
*10711 FILLER_252_241
*10712 FILLER_252_247
*10713 FILLER_252_311
*10714 FILLER_252_317
*10715 FILLER_252_34
*10716 FILLER_252_37
*10717 FILLER_252_381
*10718 FILLER_252_387
*10719 FILLER_252_451
*10720 FILLER_252_457
*10721 FILLER_252_521
*10722 FILLER_252_527
*10723 FILLER_252_591
*10724 FILLER_252_597
*10725 FILLER_252_661
*10726 FILLER_252_667
*10727 FILLER_252_731
*10728 FILLER_252_737
*10729 FILLER_252_801
*10730 FILLER_252_807
*10731 FILLER_252_871
*10732 FILLER_252_877
*10733 FILLER_252_941
*10734 FILLER_252_947
*10735 FILLER_253_1046
*10736 FILLER_253_1052
*10737 FILLER_253_1116
*10738 FILLER_253_1122
*10739 FILLER_253_1186
*10740 FILLER_253_1192
*10741 FILLER_253_1256
*10742 FILLER_253_1262
*10743 FILLER_253_1326
*10744 FILLER_253_1332
*10745 FILLER_253_136
*10746 FILLER_253_1396
*10747 FILLER_253_1402
*10748 FILLER_253_142
*10749 FILLER_253_1466
*10750 FILLER_253_1472
*10751 FILLER_253_1536
*10752 FILLER_253_1542
*10753 FILLER_253_1606
*10754 FILLER_253_1612
*10755 FILLER_253_1676
*10756 FILLER_253_1682
*10757 FILLER_253_1746
*10758 FILLER_253_1752
*10759 FILLER_253_1816
*10760 FILLER_253_1822
*10761 FILLER_253_1886
*10762 FILLER_253_1892
*10763 FILLER_253_1924
*10764 FILLER_253_1932
*10765 FILLER_253_1936
*10766 FILLER_253_2
*10767 FILLER_253_206
*10768 FILLER_253_212
*10769 FILLER_253_276
*10770 FILLER_253_282
*10771 FILLER_253_346
*10772 FILLER_253_352
*10773 FILLER_253_416
*10774 FILLER_253_422
*10775 FILLER_253_486
*10776 FILLER_253_492
*10777 FILLER_253_556
*10778 FILLER_253_562
*10779 FILLER_253_626
*10780 FILLER_253_632
*10781 FILLER_253_66
*10782 FILLER_253_696
*10783 FILLER_253_702
*10784 FILLER_253_72
*10785 FILLER_253_766
*10786 FILLER_253_772
*10787 FILLER_253_836
*10788 FILLER_253_842
*10789 FILLER_253_906
*10790 FILLER_253_912
*10791 FILLER_253_976
*10792 FILLER_253_982
*10793 FILLER_254_101
*10794 FILLER_254_1011
*10795 FILLER_254_1017
*10796 FILLER_254_107
*10797 FILLER_254_1081
*10798 FILLER_254_1087
*10799 FILLER_254_1151
*10800 FILLER_254_1157
*10801 FILLER_254_1221
*10802 FILLER_254_1227
*10803 FILLER_254_1291
*10804 FILLER_254_1297
*10805 FILLER_254_1361
*10806 FILLER_254_1367
*10807 FILLER_254_1431
*10808 FILLER_254_1437
*10809 FILLER_254_1501
*10810 FILLER_254_1507
*10811 FILLER_254_1571
*10812 FILLER_254_1577
*10813 FILLER_254_1641
*10814 FILLER_254_1647
*10815 FILLER_254_171
*10816 FILLER_254_1711
*10817 FILLER_254_1717
*10818 FILLER_254_177
*10819 FILLER_254_1781
*10820 FILLER_254_1787
*10821 FILLER_254_1851
*10822 FILLER_254_1857
*10823 FILLER_254_1921
*10824 FILLER_254_1927
*10825 FILLER_254_1935
*10826 FILLER_254_1937
*10827 FILLER_254_2
*10828 FILLER_254_241
*10829 FILLER_254_247
*10830 FILLER_254_311
*10831 FILLER_254_317
*10832 FILLER_254_34
*10833 FILLER_254_37
*10834 FILLER_254_381
*10835 FILLER_254_387
*10836 FILLER_254_451
*10837 FILLER_254_457
*10838 FILLER_254_521
*10839 FILLER_254_527
*10840 FILLER_254_591
*10841 FILLER_254_597
*10842 FILLER_254_661
*10843 FILLER_254_667
*10844 FILLER_254_731
*10845 FILLER_254_737
*10846 FILLER_254_801
*10847 FILLER_254_807
*10848 FILLER_254_871
*10849 FILLER_254_877
*10850 FILLER_254_941
*10851 FILLER_254_947
*10852 FILLER_255_1046
*10853 FILLER_255_1052
*10854 FILLER_255_1116
*10855 FILLER_255_1122
*10856 FILLER_255_1186
*10857 FILLER_255_1192
*10858 FILLER_255_1256
*10859 FILLER_255_1262
*10860 FILLER_255_1326
*10861 FILLER_255_1332
*10862 FILLER_255_136
*10863 FILLER_255_1396
*10864 FILLER_255_1402
*10865 FILLER_255_142
*10866 FILLER_255_1466
*10867 FILLER_255_1472
*10868 FILLER_255_1536
*10869 FILLER_255_1542
*10870 FILLER_255_1606
*10871 FILLER_255_1612
*10872 FILLER_255_1676
*10873 FILLER_255_1682
*10874 FILLER_255_1746
*10875 FILLER_255_1752
*10876 FILLER_255_1816
*10877 FILLER_255_1822
*10878 FILLER_255_1886
*10879 FILLER_255_1892
*10880 FILLER_255_1924
*10881 FILLER_255_1932
*10882 FILLER_255_1936
*10883 FILLER_255_2
*10884 FILLER_255_206
*10885 FILLER_255_212
*10886 FILLER_255_276
*10887 FILLER_255_282
*10888 FILLER_255_346
*10889 FILLER_255_352
*10890 FILLER_255_416
*10891 FILLER_255_422
*10892 FILLER_255_486
*10893 FILLER_255_492
*10894 FILLER_255_556
*10895 FILLER_255_562
*10896 FILLER_255_626
*10897 FILLER_255_632
*10898 FILLER_255_66
*10899 FILLER_255_696
*10900 FILLER_255_702
*10901 FILLER_255_72
*10902 FILLER_255_766
*10903 FILLER_255_772
*10904 FILLER_255_836
*10905 FILLER_255_842
*10906 FILLER_255_906
*10907 FILLER_255_912
*10908 FILLER_255_976
*10909 FILLER_255_982
*10910 FILLER_256_101
*10911 FILLER_256_1011
*10912 FILLER_256_1017
*10913 FILLER_256_107
*10914 FILLER_256_1081
*10915 FILLER_256_1087
*10916 FILLER_256_1151
*10917 FILLER_256_1157
*10918 FILLER_256_1221
*10919 FILLER_256_1227
*10920 FILLER_256_1291
*10921 FILLER_256_1297
*10922 FILLER_256_1361
*10923 FILLER_256_1367
*10924 FILLER_256_1431
*10925 FILLER_256_1437
*10926 FILLER_256_1501
*10927 FILLER_256_1507
*10928 FILLER_256_1571
*10929 FILLER_256_1577
*10930 FILLER_256_1641
*10931 FILLER_256_1647
*10932 FILLER_256_171
*10933 FILLER_256_1711
*10934 FILLER_256_1717
*10935 FILLER_256_177
*10936 FILLER_256_1781
*10937 FILLER_256_1787
*10938 FILLER_256_1851
*10939 FILLER_256_1857
*10940 FILLER_256_1921
*10941 FILLER_256_1927
*10942 FILLER_256_1935
*10943 FILLER_256_1937
*10944 FILLER_256_2
*10945 FILLER_256_241
*10946 FILLER_256_247
*10947 FILLER_256_311
*10948 FILLER_256_317
*10949 FILLER_256_34
*10950 FILLER_256_37
*10951 FILLER_256_381
*10952 FILLER_256_387
*10953 FILLER_256_451
*10954 FILLER_256_457
*10955 FILLER_256_521
*10956 FILLER_256_527
*10957 FILLER_256_591
*10958 FILLER_256_597
*10959 FILLER_256_661
*10960 FILLER_256_667
*10961 FILLER_256_731
*10962 FILLER_256_737
*10963 FILLER_256_801
*10964 FILLER_256_807
*10965 FILLER_256_871
*10966 FILLER_256_877
*10967 FILLER_256_941
*10968 FILLER_256_947
*10969 FILLER_257_1046
*10970 FILLER_257_1052
*10971 FILLER_257_1116
*10972 FILLER_257_1122
*10973 FILLER_257_1186
*10974 FILLER_257_1192
*10975 FILLER_257_1256
*10976 FILLER_257_1262
*10977 FILLER_257_1326
*10978 FILLER_257_1332
*10979 FILLER_257_136
*10980 FILLER_257_1396
*10981 FILLER_257_1402
*10982 FILLER_257_142
*10983 FILLER_257_1466
*10984 FILLER_257_1472
*10985 FILLER_257_1536
*10986 FILLER_257_1542
*10987 FILLER_257_1606
*10988 FILLER_257_1612
*10989 FILLER_257_1676
*10990 FILLER_257_1682
*10991 FILLER_257_1746
*10992 FILLER_257_1752
*10993 FILLER_257_1816
*10994 FILLER_257_1822
*10995 FILLER_257_1886
*10996 FILLER_257_1892
*10997 FILLER_257_1924
*10998 FILLER_257_1932
*10999 FILLER_257_1936
*11000 FILLER_257_2
*11001 FILLER_257_206
*11002 FILLER_257_212
*11003 FILLER_257_276
*11004 FILLER_257_282
*11005 FILLER_257_346
*11006 FILLER_257_352
*11007 FILLER_257_416
*11008 FILLER_257_422
*11009 FILLER_257_486
*11010 FILLER_257_492
*11011 FILLER_257_556
*11012 FILLER_257_562
*11013 FILLER_257_626
*11014 FILLER_257_632
*11015 FILLER_257_66
*11016 FILLER_257_696
*11017 FILLER_257_702
*11018 FILLER_257_72
*11019 FILLER_257_766
*11020 FILLER_257_772
*11021 FILLER_257_836
*11022 FILLER_257_842
*11023 FILLER_257_906
*11024 FILLER_257_912
*11025 FILLER_257_976
*11026 FILLER_257_982
*11027 FILLER_258_101
*11028 FILLER_258_1011
*11029 FILLER_258_1017
*11030 FILLER_258_107
*11031 FILLER_258_1081
*11032 FILLER_258_1087
*11033 FILLER_258_1151
*11034 FILLER_258_1157
*11035 FILLER_258_1221
*11036 FILLER_258_1227
*11037 FILLER_258_1291
*11038 FILLER_258_1297
*11039 FILLER_258_1361
*11040 FILLER_258_1367
*11041 FILLER_258_1431
*11042 FILLER_258_1437
*11043 FILLER_258_1501
*11044 FILLER_258_1507
*11045 FILLER_258_1571
*11046 FILLER_258_1577
*11047 FILLER_258_1641
*11048 FILLER_258_1647
*11049 FILLER_258_171
*11050 FILLER_258_1711
*11051 FILLER_258_1717
*11052 FILLER_258_177
*11053 FILLER_258_1781
*11054 FILLER_258_1787
*11055 FILLER_258_1851
*11056 FILLER_258_1857
*11057 FILLER_258_1921
*11058 FILLER_258_1927
*11059 FILLER_258_1935
*11060 FILLER_258_1937
*11061 FILLER_258_2
*11062 FILLER_258_241
*11063 FILLER_258_247
*11064 FILLER_258_311
*11065 FILLER_258_317
*11066 FILLER_258_34
*11067 FILLER_258_37
*11068 FILLER_258_381
*11069 FILLER_258_387
*11070 FILLER_258_451
*11071 FILLER_258_457
*11072 FILLER_258_521
*11073 FILLER_258_527
*11074 FILLER_258_591
*11075 FILLER_258_597
*11076 FILLER_258_661
*11077 FILLER_258_667
*11078 FILLER_258_731
*11079 FILLER_258_737
*11080 FILLER_258_801
*11081 FILLER_258_807
*11082 FILLER_258_871
*11083 FILLER_258_877
*11084 FILLER_258_941
*11085 FILLER_258_947
*11086 FILLER_259_1046
*11087 FILLER_259_1052
*11088 FILLER_259_1116
*11089 FILLER_259_1122
*11090 FILLER_259_1186
*11091 FILLER_259_1192
*11092 FILLER_259_1256
*11093 FILLER_259_1262
*11094 FILLER_259_1326
*11095 FILLER_259_1332
*11096 FILLER_259_136
*11097 FILLER_259_1396
*11098 FILLER_259_1402
*11099 FILLER_259_142
*11100 FILLER_259_1466
*11101 FILLER_259_1472
*11102 FILLER_259_1536
*11103 FILLER_259_1542
*11104 FILLER_259_1606
*11105 FILLER_259_1612
*11106 FILLER_259_1676
*11107 FILLER_259_1682
*11108 FILLER_259_1746
*11109 FILLER_259_1752
*11110 FILLER_259_1816
*11111 FILLER_259_1822
*11112 FILLER_259_1886
*11113 FILLER_259_1892
*11114 FILLER_259_1924
*11115 FILLER_259_1932
*11116 FILLER_259_1936
*11117 FILLER_259_2
*11118 FILLER_259_206
*11119 FILLER_259_212
*11120 FILLER_259_276
*11121 FILLER_259_282
*11122 FILLER_259_346
*11123 FILLER_259_352
*11124 FILLER_259_416
*11125 FILLER_259_422
*11126 FILLER_259_486
*11127 FILLER_259_492
*11128 FILLER_259_556
*11129 FILLER_259_562
*11130 FILLER_259_626
*11131 FILLER_259_632
*11132 FILLER_259_66
*11133 FILLER_259_696
*11134 FILLER_259_702
*11135 FILLER_259_72
*11136 FILLER_259_766
*11137 FILLER_259_772
*11138 FILLER_259_836
*11139 FILLER_259_842
*11140 FILLER_259_906
*11141 FILLER_259_912
*11142 FILLER_259_976
*11143 FILLER_259_982
*11144 FILLER_25_1046
*11145 FILLER_25_1052
*11146 FILLER_25_1116
*11147 FILLER_25_1122
*11148 FILLER_25_1186
*11149 FILLER_25_1192
*11150 FILLER_25_1256
*11151 FILLER_25_1262
*11152 FILLER_25_1326
*11153 FILLER_25_1332
*11154 FILLER_25_136
*11155 FILLER_25_1396
*11156 FILLER_25_1402
*11157 FILLER_25_142
*11158 FILLER_25_1466
*11159 FILLER_25_1472
*11160 FILLER_25_1536
*11161 FILLER_25_1542
*11162 FILLER_25_1606
*11163 FILLER_25_1612
*11164 FILLER_25_1676
*11165 FILLER_25_1682
*11166 FILLER_25_1746
*11167 FILLER_25_1752
*11168 FILLER_25_1816
*11169 FILLER_25_1822
*11170 FILLER_25_1886
*11171 FILLER_25_1892
*11172 FILLER_25_1924
*11173 FILLER_25_1932
*11174 FILLER_25_1936
*11175 FILLER_25_2
*11176 FILLER_25_206
*11177 FILLER_25_212
*11178 FILLER_25_276
*11179 FILLER_25_282
*11180 FILLER_25_346
*11181 FILLER_25_352
*11182 FILLER_25_416
*11183 FILLER_25_422
*11184 FILLER_25_486
*11185 FILLER_25_492
*11186 FILLER_25_556
*11187 FILLER_25_562
*11188 FILLER_25_626
*11189 FILLER_25_632
*11190 FILLER_25_66
*11191 FILLER_25_696
*11192 FILLER_25_702
*11193 FILLER_25_72
*11194 FILLER_25_766
*11195 FILLER_25_772
*11196 FILLER_25_836
*11197 FILLER_25_842
*11198 FILLER_25_906
*11199 FILLER_25_912
*11200 FILLER_25_976
*11201 FILLER_25_982
*11202 FILLER_260_101
*11203 FILLER_260_1011
*11204 FILLER_260_1017
*11205 FILLER_260_107
*11206 FILLER_260_1081
*11207 FILLER_260_1087
*11208 FILLER_260_1151
*11209 FILLER_260_1157
*11210 FILLER_260_1221
*11211 FILLER_260_1227
*11212 FILLER_260_1291
*11213 FILLER_260_1297
*11214 FILLER_260_1361
*11215 FILLER_260_1367
*11216 FILLER_260_1431
*11217 FILLER_260_1437
*11218 FILLER_260_1501
*11219 FILLER_260_1507
*11220 FILLER_260_1571
*11221 FILLER_260_1577
*11222 FILLER_260_1641
*11223 FILLER_260_1647
*11224 FILLER_260_171
*11225 FILLER_260_1711
*11226 FILLER_260_1717
*11227 FILLER_260_177
*11228 FILLER_260_1781
*11229 FILLER_260_1787
*11230 FILLER_260_1851
*11231 FILLER_260_1857
*11232 FILLER_260_1921
*11233 FILLER_260_1927
*11234 FILLER_260_1935
*11235 FILLER_260_1937
*11236 FILLER_260_2
*11237 FILLER_260_241
*11238 FILLER_260_247
*11239 FILLER_260_311
*11240 FILLER_260_317
*11241 FILLER_260_34
*11242 FILLER_260_37
*11243 FILLER_260_381
*11244 FILLER_260_387
*11245 FILLER_260_451
*11246 FILLER_260_457
*11247 FILLER_260_521
*11248 FILLER_260_527
*11249 FILLER_260_591
*11250 FILLER_260_597
*11251 FILLER_260_661
*11252 FILLER_260_667
*11253 FILLER_260_731
*11254 FILLER_260_737
*11255 FILLER_260_801
*11256 FILLER_260_807
*11257 FILLER_260_871
*11258 FILLER_260_877
*11259 FILLER_260_941
*11260 FILLER_260_947
*11261 FILLER_261_1046
*11262 FILLER_261_1052
*11263 FILLER_261_1116
*11264 FILLER_261_1122
*11265 FILLER_261_1186
*11266 FILLER_261_1192
*11267 FILLER_261_1256
*11268 FILLER_261_1262
*11269 FILLER_261_1326
*11270 FILLER_261_1332
*11271 FILLER_261_136
*11272 FILLER_261_1396
*11273 FILLER_261_1402
*11274 FILLER_261_142
*11275 FILLER_261_1466
*11276 FILLER_261_1472
*11277 FILLER_261_1536
*11278 FILLER_261_1542
*11279 FILLER_261_1606
*11280 FILLER_261_1612
*11281 FILLER_261_1676
*11282 FILLER_261_1682
*11283 FILLER_261_1746
*11284 FILLER_261_1752
*11285 FILLER_261_1816
*11286 FILLER_261_1822
*11287 FILLER_261_1886
*11288 FILLER_261_1892
*11289 FILLER_261_1924
*11290 FILLER_261_1932
*11291 FILLER_261_1936
*11292 FILLER_261_2
*11293 FILLER_261_206
*11294 FILLER_261_212
*11295 FILLER_261_276
*11296 FILLER_261_282
*11297 FILLER_261_346
*11298 FILLER_261_352
*11299 FILLER_261_416
*11300 FILLER_261_422
*11301 FILLER_261_486
*11302 FILLER_261_492
*11303 FILLER_261_556
*11304 FILLER_261_562
*11305 FILLER_261_626
*11306 FILLER_261_632
*11307 FILLER_261_66
*11308 FILLER_261_696
*11309 FILLER_261_702
*11310 FILLER_261_72
*11311 FILLER_261_766
*11312 FILLER_261_772
*11313 FILLER_261_836
*11314 FILLER_261_842
*11315 FILLER_261_906
*11316 FILLER_261_912
*11317 FILLER_261_976
*11318 FILLER_261_982
*11319 FILLER_262_101
*11320 FILLER_262_1011
*11321 FILLER_262_1017
*11322 FILLER_262_107
*11323 FILLER_262_1081
*11324 FILLER_262_1087
*11325 FILLER_262_1151
*11326 FILLER_262_1157
*11327 FILLER_262_1221
*11328 FILLER_262_1227
*11329 FILLER_262_1291
*11330 FILLER_262_1297
*11331 FILLER_262_1361
*11332 FILLER_262_1367
*11333 FILLER_262_1431
*11334 FILLER_262_1437
*11335 FILLER_262_1501
*11336 FILLER_262_1507
*11337 FILLER_262_1571
*11338 FILLER_262_1577
*11339 FILLER_262_1641
*11340 FILLER_262_1647
*11341 FILLER_262_171
*11342 FILLER_262_1711
*11343 FILLER_262_1717
*11344 FILLER_262_177
*11345 FILLER_262_1781
*11346 FILLER_262_1787
*11347 FILLER_262_1851
*11348 FILLER_262_1857
*11349 FILLER_262_1921
*11350 FILLER_262_1927
*11351 FILLER_262_1935
*11352 FILLER_262_1937
*11353 FILLER_262_2
*11354 FILLER_262_241
*11355 FILLER_262_247
*11356 FILLER_262_311
*11357 FILLER_262_317
*11358 FILLER_262_34
*11359 FILLER_262_37
*11360 FILLER_262_381
*11361 FILLER_262_387
*11362 FILLER_262_451
*11363 FILLER_262_457
*11364 FILLER_262_521
*11365 FILLER_262_527
*11366 FILLER_262_591
*11367 FILLER_262_597
*11368 FILLER_262_661
*11369 FILLER_262_667
*11370 FILLER_262_731
*11371 FILLER_262_737
*11372 FILLER_262_801
*11373 FILLER_262_807
*11374 FILLER_262_871
*11375 FILLER_262_877
*11376 FILLER_262_941
*11377 FILLER_262_947
*11378 FILLER_263_1046
*11379 FILLER_263_1052
*11380 FILLER_263_1116
*11381 FILLER_263_1122
*11382 FILLER_263_1186
*11383 FILLER_263_1192
*11384 FILLER_263_1256
*11385 FILLER_263_1262
*11386 FILLER_263_1326
*11387 FILLER_263_1332
*11388 FILLER_263_136
*11389 FILLER_263_1396
*11390 FILLER_263_1402
*11391 FILLER_263_142
*11392 FILLER_263_1466
*11393 FILLER_263_1472
*11394 FILLER_263_1536
*11395 FILLER_263_1542
*11396 FILLER_263_1606
*11397 FILLER_263_1612
*11398 FILLER_263_1676
*11399 FILLER_263_1682
*11400 FILLER_263_1746
*11401 FILLER_263_1752
*11402 FILLER_263_1816
*11403 FILLER_263_1822
*11404 FILLER_263_1886
*11405 FILLER_263_1892
*11406 FILLER_263_1924
*11407 FILLER_263_1932
*11408 FILLER_263_1936
*11409 FILLER_263_2
*11410 FILLER_263_206
*11411 FILLER_263_212
*11412 FILLER_263_276
*11413 FILLER_263_282
*11414 FILLER_263_346
*11415 FILLER_263_352
*11416 FILLER_263_416
*11417 FILLER_263_422
*11418 FILLER_263_486
*11419 FILLER_263_492
*11420 FILLER_263_556
*11421 FILLER_263_562
*11422 FILLER_263_626
*11423 FILLER_263_632
*11424 FILLER_263_66
*11425 FILLER_263_696
*11426 FILLER_263_702
*11427 FILLER_263_72
*11428 FILLER_263_766
*11429 FILLER_263_772
*11430 FILLER_263_836
*11431 FILLER_263_842
*11432 FILLER_263_906
*11433 FILLER_263_912
*11434 FILLER_263_976
*11435 FILLER_263_982
*11436 FILLER_264_101
*11437 FILLER_264_1011
*11438 FILLER_264_1017
*11439 FILLER_264_107
*11440 FILLER_264_1081
*11441 FILLER_264_1087
*11442 FILLER_264_1151
*11443 FILLER_264_1157
*11444 FILLER_264_1221
*11445 FILLER_264_1227
*11446 FILLER_264_1291
*11447 FILLER_264_1297
*11448 FILLER_264_1361
*11449 FILLER_264_1367
*11450 FILLER_264_1431
*11451 FILLER_264_1437
*11452 FILLER_264_1501
*11453 FILLER_264_1507
*11454 FILLER_264_1571
*11455 FILLER_264_1577
*11456 FILLER_264_1641
*11457 FILLER_264_1647
*11458 FILLER_264_171
*11459 FILLER_264_1711
*11460 FILLER_264_1717
*11461 FILLER_264_177
*11462 FILLER_264_1781
*11463 FILLER_264_1787
*11464 FILLER_264_1851
*11465 FILLER_264_1857
*11466 FILLER_264_1921
*11467 FILLER_264_1927
*11468 FILLER_264_1935
*11469 FILLER_264_1937
*11470 FILLER_264_2
*11471 FILLER_264_241
*11472 FILLER_264_247
*11473 FILLER_264_311
*11474 FILLER_264_317
*11475 FILLER_264_34
*11476 FILLER_264_37
*11477 FILLER_264_381
*11478 FILLER_264_387
*11479 FILLER_264_451
*11480 FILLER_264_457
*11481 FILLER_264_521
*11482 FILLER_264_527
*11483 FILLER_264_591
*11484 FILLER_264_597
*11485 FILLER_264_661
*11486 FILLER_264_667
*11487 FILLER_264_731
*11488 FILLER_264_737
*11489 FILLER_264_801
*11490 FILLER_264_807
*11491 FILLER_264_871
*11492 FILLER_264_877
*11493 FILLER_264_941
*11494 FILLER_264_947
*11495 FILLER_265_1046
*11496 FILLER_265_1052
*11497 FILLER_265_1116
*11498 FILLER_265_1122
*11499 FILLER_265_1186
*11500 FILLER_265_1192
*11501 FILLER_265_1256
*11502 FILLER_265_1262
*11503 FILLER_265_1326
*11504 FILLER_265_1332
*11505 FILLER_265_136
*11506 FILLER_265_1396
*11507 FILLER_265_1402
*11508 FILLER_265_142
*11509 FILLER_265_1466
*11510 FILLER_265_1472
*11511 FILLER_265_1536
*11512 FILLER_265_1542
*11513 FILLER_265_1606
*11514 FILLER_265_1612
*11515 FILLER_265_1676
*11516 FILLER_265_1682
*11517 FILLER_265_1746
*11518 FILLER_265_1752
*11519 FILLER_265_1816
*11520 FILLER_265_1822
*11521 FILLER_265_1886
*11522 FILLER_265_1892
*11523 FILLER_265_1924
*11524 FILLER_265_1932
*11525 FILLER_265_1936
*11526 FILLER_265_2
*11527 FILLER_265_206
*11528 FILLER_265_212
*11529 FILLER_265_276
*11530 FILLER_265_282
*11531 FILLER_265_346
*11532 FILLER_265_352
*11533 FILLER_265_416
*11534 FILLER_265_422
*11535 FILLER_265_486
*11536 FILLER_265_492
*11537 FILLER_265_556
*11538 FILLER_265_562
*11539 FILLER_265_626
*11540 FILLER_265_632
*11541 FILLER_265_66
*11542 FILLER_265_696
*11543 FILLER_265_702
*11544 FILLER_265_72
*11545 FILLER_265_766
*11546 FILLER_265_772
*11547 FILLER_265_836
*11548 FILLER_265_842
*11549 FILLER_265_906
*11550 FILLER_265_912
*11551 FILLER_265_976
*11552 FILLER_265_982
*11553 FILLER_266_101
*11554 FILLER_266_1011
*11555 FILLER_266_1017
*11556 FILLER_266_107
*11557 FILLER_266_1081
*11558 FILLER_266_1087
*11559 FILLER_266_1151
*11560 FILLER_266_1157
*11561 FILLER_266_1221
*11562 FILLER_266_1227
*11563 FILLER_266_1291
*11564 FILLER_266_1297
*11565 FILLER_266_1361
*11566 FILLER_266_1367
*11567 FILLER_266_1431
*11568 FILLER_266_1437
*11569 FILLER_266_1501
*11570 FILLER_266_1507
*11571 FILLER_266_1571
*11572 FILLER_266_1577
*11573 FILLER_266_1641
*11574 FILLER_266_1647
*11575 FILLER_266_171
*11576 FILLER_266_1711
*11577 FILLER_266_1717
*11578 FILLER_266_177
*11579 FILLER_266_1781
*11580 FILLER_266_1787
*11581 FILLER_266_1851
*11582 FILLER_266_1857
*11583 FILLER_266_1921
*11584 FILLER_266_1927
*11585 FILLER_266_1935
*11586 FILLER_266_1937
*11587 FILLER_266_2
*11588 FILLER_266_241
*11589 FILLER_266_247
*11590 FILLER_266_311
*11591 FILLER_266_317
*11592 FILLER_266_34
*11593 FILLER_266_37
*11594 FILLER_266_381
*11595 FILLER_266_387
*11596 FILLER_266_451
*11597 FILLER_266_457
*11598 FILLER_266_521
*11599 FILLER_266_527
*11600 FILLER_266_591
*11601 FILLER_266_597
*11602 FILLER_266_661
*11603 FILLER_266_667
*11604 FILLER_266_731
*11605 FILLER_266_737
*11606 FILLER_266_801
*11607 FILLER_266_807
*11608 FILLER_266_871
*11609 FILLER_266_877
*11610 FILLER_266_941
*11611 FILLER_266_947
*11612 FILLER_267_1046
*11613 FILLER_267_1052
*11614 FILLER_267_1116
*11615 FILLER_267_1122
*11616 FILLER_267_1186
*11617 FILLER_267_1192
*11618 FILLER_267_1256
*11619 FILLER_267_1262
*11620 FILLER_267_1326
*11621 FILLER_267_1332
*11622 FILLER_267_136
*11623 FILLER_267_1396
*11624 FILLER_267_1402
*11625 FILLER_267_142
*11626 FILLER_267_1466
*11627 FILLER_267_1472
*11628 FILLER_267_1536
*11629 FILLER_267_1542
*11630 FILLER_267_1606
*11631 FILLER_267_1612
*11632 FILLER_267_1676
*11633 FILLER_267_1682
*11634 FILLER_267_1746
*11635 FILLER_267_1752
*11636 FILLER_267_1816
*11637 FILLER_267_1822
*11638 FILLER_267_1886
*11639 FILLER_267_1892
*11640 FILLER_267_1924
*11641 FILLER_267_1932
*11642 FILLER_267_1936
*11643 FILLER_267_2
*11644 FILLER_267_206
*11645 FILLER_267_212
*11646 FILLER_267_276
*11647 FILLER_267_282
*11648 FILLER_267_346
*11649 FILLER_267_352
*11650 FILLER_267_416
*11651 FILLER_267_422
*11652 FILLER_267_486
*11653 FILLER_267_492
*11654 FILLER_267_556
*11655 FILLER_267_562
*11656 FILLER_267_626
*11657 FILLER_267_632
*11658 FILLER_267_66
*11659 FILLER_267_696
*11660 FILLER_267_702
*11661 FILLER_267_72
*11662 FILLER_267_766
*11663 FILLER_267_772
*11664 FILLER_267_836
*11665 FILLER_267_842
*11666 FILLER_267_906
*11667 FILLER_267_912
*11668 FILLER_267_976
*11669 FILLER_267_982
*11670 FILLER_268_101
*11671 FILLER_268_1011
*11672 FILLER_268_1017
*11673 FILLER_268_107
*11674 FILLER_268_1081
*11675 FILLER_268_1087
*11676 FILLER_268_1151
*11677 FILLER_268_1157
*11678 FILLER_268_1221
*11679 FILLER_268_1227
*11680 FILLER_268_1291
*11681 FILLER_268_1297
*11682 FILLER_268_1361
*11683 FILLER_268_1367
*11684 FILLER_268_1431
*11685 FILLER_268_1437
*11686 FILLER_268_1501
*11687 FILLER_268_1507
*11688 FILLER_268_1571
*11689 FILLER_268_1577
*11690 FILLER_268_1641
*11691 FILLER_268_1647
*11692 FILLER_268_171
*11693 FILLER_268_1711
*11694 FILLER_268_1717
*11695 FILLER_268_177
*11696 FILLER_268_1781
*11697 FILLER_268_1787
*11698 FILLER_268_1851
*11699 FILLER_268_1857
*11700 FILLER_268_1921
*11701 FILLER_268_1927
*11702 FILLER_268_1935
*11703 FILLER_268_1937
*11704 FILLER_268_2
*11705 FILLER_268_241
*11706 FILLER_268_247
*11707 FILLER_268_311
*11708 FILLER_268_317
*11709 FILLER_268_34
*11710 FILLER_268_37
*11711 FILLER_268_381
*11712 FILLER_268_387
*11713 FILLER_268_451
*11714 FILLER_268_457
*11715 FILLER_268_521
*11716 FILLER_268_527
*11717 FILLER_268_591
*11718 FILLER_268_597
*11719 FILLER_268_661
*11720 FILLER_268_667
*11721 FILLER_268_731
*11722 FILLER_268_737
*11723 FILLER_268_801
*11724 FILLER_268_807
*11725 FILLER_268_871
*11726 FILLER_268_877
*11727 FILLER_268_941
*11728 FILLER_268_947
*11729 FILLER_269_1002
*11730 FILLER_269_1004
*11731 FILLER_269_1009
*11732 FILLER_269_1015
*11733 FILLER_269_1021
*11734 FILLER_269_1027
*11735 FILLER_269_1033
*11736 FILLER_269_1039
*11737 FILLER_269_1045
*11738 FILLER_269_1049
*11739 FILLER_269_1052
*11740 FILLER_269_1057
*11741 FILLER_269_1089
*11742 FILLER_269_1105
*11743 FILLER_269_1113
*11744 FILLER_269_1117
*11745 FILLER_269_1119
*11746 FILLER_269_1122
*11747 FILLER_269_1186
*11748 FILLER_269_1192
*11749 FILLER_269_1256
*11750 FILLER_269_1262
*11751 FILLER_269_1326
*11752 FILLER_269_1332
*11753 FILLER_269_136
*11754 FILLER_269_1396
*11755 FILLER_269_1402
*11756 FILLER_269_142
*11757 FILLER_269_1466
*11758 FILLER_269_1472
*11759 FILLER_269_1536
*11760 FILLER_269_1542
*11761 FILLER_269_1606
*11762 FILLER_269_1612
*11763 FILLER_269_1676
*11764 FILLER_269_1682
*11765 FILLER_269_1746
*11766 FILLER_269_1752
*11767 FILLER_269_1816
*11768 FILLER_269_1822
*11769 FILLER_269_1886
*11770 FILLER_269_1892
*11771 FILLER_269_1924
*11772 FILLER_269_1932
*11773 FILLER_269_1936
*11774 FILLER_269_2
*11775 FILLER_269_206
*11776 FILLER_269_212
*11777 FILLER_269_276
*11778 FILLER_269_282
*11779 FILLER_269_346
*11780 FILLER_269_352
*11781 FILLER_269_416
*11782 FILLER_269_422
*11783 FILLER_269_486
*11784 FILLER_269_492
*11785 FILLER_269_556
*11786 FILLER_269_562
*11787 FILLER_269_626
*11788 FILLER_269_632
*11789 FILLER_269_66
*11790 FILLER_269_696
*11791 FILLER_269_702
*11792 FILLER_269_72
*11793 FILLER_269_766
*11794 FILLER_269_772
*11795 FILLER_269_836
*11796 FILLER_269_842
*11797 FILLER_269_874
*11798 FILLER_269_878
*11799 FILLER_269_880
*11800 FILLER_269_885
*11801 FILLER_269_891
*11802 FILLER_269_897
*11803 FILLER_269_903
*11804 FILLER_269_909
*11805 FILLER_269_912
*11806 FILLER_269_917
*11807 FILLER_269_923
*11808 FILLER_269_929
*11809 FILLER_269_935
*11810 FILLER_269_941
*11811 FILLER_269_947
*11812 FILLER_269_953
*11813 FILLER_269_959
*11814 FILLER_269_965
*11815 FILLER_269_971
*11816 FILLER_269_979
*11817 FILLER_269_982
*11818 FILLER_269_998
*11819 FILLER_26_101
*11820 FILLER_26_1011
*11821 FILLER_26_1017
*11822 FILLER_26_107
*11823 FILLER_26_1081
*11824 FILLER_26_1087
*11825 FILLER_26_1151
*11826 FILLER_26_1157
*11827 FILLER_26_1221
*11828 FILLER_26_1227
*11829 FILLER_26_1291
*11830 FILLER_26_1297
*11831 FILLER_26_1361
*11832 FILLER_26_1367
*11833 FILLER_26_1431
*11834 FILLER_26_1437
*11835 FILLER_26_1501
*11836 FILLER_26_1507
*11837 FILLER_26_1571
*11838 FILLER_26_1577
*11839 FILLER_26_1641
*11840 FILLER_26_1647
*11841 FILLER_26_171
*11842 FILLER_26_1711
*11843 FILLER_26_1717
*11844 FILLER_26_177
*11845 FILLER_26_1781
*11846 FILLER_26_1787
*11847 FILLER_26_1851
*11848 FILLER_26_1857
*11849 FILLER_26_1921
*11850 FILLER_26_1927
*11851 FILLER_26_1935
*11852 FILLER_26_1937
*11853 FILLER_26_2
*11854 FILLER_26_241
*11855 FILLER_26_247
*11856 FILLER_26_311
*11857 FILLER_26_317
*11858 FILLER_26_34
*11859 FILLER_26_37
*11860 FILLER_26_381
*11861 FILLER_26_387
*11862 FILLER_26_451
*11863 FILLER_26_457
*11864 FILLER_26_521
*11865 FILLER_26_527
*11866 FILLER_26_591
*11867 FILLER_26_597
*11868 FILLER_26_661
*11869 FILLER_26_667
*11870 FILLER_26_731
*11871 FILLER_26_737
*11872 FILLER_26_801
*11873 FILLER_26_807
*11874 FILLER_26_871
*11875 FILLER_26_877
*11876 FILLER_26_941
*11877 FILLER_26_947
*11878 FILLER_270_1003
*11879 FILLER_270_1009
*11880 FILLER_270_101
*11881 FILLER_270_1013
*11882 FILLER_270_1017
*11883 FILLER_270_1022
*11884 FILLER_270_1028
*11885 FILLER_270_1034
*11886 FILLER_270_1040
*11887 FILLER_270_1046
*11888 FILLER_270_1052
*11889 FILLER_270_1058
*11890 FILLER_270_1064
*11891 FILLER_270_107
*11892 FILLER_270_1080
*11893 FILLER_270_1084
*11894 FILLER_270_1087
*11895 FILLER_270_1151
*11896 FILLER_270_1157
*11897 FILLER_270_1221
*11898 FILLER_270_1227
*11899 FILLER_270_1291
*11900 FILLER_270_1297
*11901 FILLER_270_1361
*11902 FILLER_270_1367
*11903 FILLER_270_1431
*11904 FILLER_270_1437
*11905 FILLER_270_1501
*11906 FILLER_270_1507
*11907 FILLER_270_1571
*11908 FILLER_270_1577
*11909 FILLER_270_1641
*11910 FILLER_270_1647
*11911 FILLER_270_171
*11912 FILLER_270_1711
*11913 FILLER_270_1717
*11914 FILLER_270_177
*11915 FILLER_270_1781
*11916 FILLER_270_1787
*11917 FILLER_270_1851
*11918 FILLER_270_1857
*11919 FILLER_270_1921
*11920 FILLER_270_1927
*11921 FILLER_270_1935
*11922 FILLER_270_1937
*11923 FILLER_270_2
*11924 FILLER_270_241
*11925 FILLER_270_247
*11926 FILLER_270_311
*11927 FILLER_270_317
*11928 FILLER_270_34
*11929 FILLER_270_37
*11930 FILLER_270_381
*11931 FILLER_270_387
*11932 FILLER_270_451
*11933 FILLER_270_457
*11934 FILLER_270_521
*11935 FILLER_270_527
*11936 FILLER_270_591
*11937 FILLER_270_597
*11938 FILLER_270_661
*11939 FILLER_270_667
*11940 FILLER_270_731
*11941 FILLER_270_737
*11942 FILLER_270_801
*11943 FILLER_270_807
*11944 FILLER_270_839
*11945 FILLER_270_855
*11946 FILLER_270_863
*11947 FILLER_270_867
*11948 FILLER_270_869
*11949 FILLER_270_874
*11950 FILLER_270_877
*11951 FILLER_270_879
*11952 FILLER_270_884
*11953 FILLER_270_890
*11954 FILLER_270_896
*11955 FILLER_270_902
*11956 FILLER_270_908
*11957 FILLER_270_914
*11958 FILLER_270_920
*11959 FILLER_270_926
*11960 FILLER_270_932
*11961 FILLER_270_938
*11962 FILLER_270_944
*11963 FILLER_270_947
*11964 FILLER_270_952
*11965 FILLER_270_958
*11966 FILLER_270_964
*11967 FILLER_270_970
*11968 FILLER_270_976
*11969 FILLER_270_982
*11970 FILLER_270_988
*11971 FILLER_270_996
*11972 FILLER_270_998
*11973 FILLER_271_1002
*11974 FILLER_271_1008
*11975 FILLER_271_1014
*11976 FILLER_271_1018
*11977 FILLER_271_1022
*11978 FILLER_271_1027
*11979 FILLER_271_1033
*11980 FILLER_271_1039
*11981 FILLER_271_104
*11982 FILLER_271_1045
*11983 FILLER_271_1051
*11984 FILLER_271_1053
*11985 FILLER_271_1056
*11986 FILLER_271_1061
*11987 FILLER_271_1067
*11988 FILLER_271_1073
*11989 FILLER_271_1081
*11990 FILLER_271_1085
*11991 FILLER_271_1087
*11992 FILLER_271_1090
*11993 FILLER_271_1124
*11994 FILLER_271_1158
*11995 FILLER_271_1192
*11996 FILLER_271_1226
*11997 FILLER_271_1260
*11998 FILLER_271_1294
*11999 FILLER_271_1328
*12000 FILLER_271_1362
*12001 FILLER_271_138
*12002 FILLER_271_1396
*12003 FILLER_271_1430
*12004 FILLER_271_1464
*12005 FILLER_271_1498
*12006 FILLER_271_1532
*12007 FILLER_271_1566
*12008 FILLER_271_1600
*12009 FILLER_271_1634
*12010 FILLER_271_1668
*12011 FILLER_271_1702
*12012 FILLER_271_172
*12013 FILLER_271_1736
*12014 FILLER_271_1770
*12015 FILLER_271_1804
*12016 FILLER_271_1838
*12017 FILLER_271_1872
*12018 FILLER_271_1906
*12019 FILLER_271_2
*12020 FILLER_271_206
*12021 FILLER_271_240
*12022 FILLER_271_274
*12023 FILLER_271_308
*12024 FILLER_271_342
*12025 FILLER_271_36
*12026 FILLER_271_376
*12027 FILLER_271_410
*12028 FILLER_271_444
*12029 FILLER_271_478
*12030 FILLER_271_512
*12031 FILLER_271_546
*12032 FILLER_271_580
*12033 FILLER_271_614
*12034 FILLER_271_648
*12035 FILLER_271_682
*12036 FILLER_271_70
*12037 FILLER_271_716
*12038 FILLER_271_750
*12039 FILLER_271_784
*12040 FILLER_271_818
*12041 FILLER_271_852
*12042 FILLER_271_860
*12043 FILLER_271_865
*12044 FILLER_271_871
*12045 FILLER_271_877
*12046 FILLER_271_883
*12047 FILLER_271_886
*12048 FILLER_271_888
*12049 FILLER_271_893
*12050 FILLER_271_899
*12051 FILLER_271_905
*12052 FILLER_271_911
*12053 FILLER_271_917
*12054 FILLER_271_920
*12055 FILLER_271_922
*12056 FILLER_271_927
*12057 FILLER_271_933
*12058 FILLER_271_939
*12059 FILLER_271_945
*12060 FILLER_271_951
*12061 FILLER_271_954
*12062 FILLER_271_956
*12063 FILLER_271_961
*12064 FILLER_271_967
*12065 FILLER_271_973
*12066 FILLER_271_979
*12067 FILLER_271_985
*12068 FILLER_271_988
*12069 FILLER_271_996
*12070 FILLER_27_1046
*12071 FILLER_27_1052
*12072 FILLER_27_1116
*12073 FILLER_27_1122
*12074 FILLER_27_1186
*12075 FILLER_27_1192
*12076 FILLER_27_1256
*12077 FILLER_27_1262
*12078 FILLER_27_1326
*12079 FILLER_27_1332
*12080 FILLER_27_136
*12081 FILLER_27_1396
*12082 FILLER_27_1402
*12083 FILLER_27_142
*12084 FILLER_27_1466
*12085 FILLER_27_1472
*12086 FILLER_27_1536
*12087 FILLER_27_1542
*12088 FILLER_27_1606
*12089 FILLER_27_1612
*12090 FILLER_27_1676
*12091 FILLER_27_1682
*12092 FILLER_27_1746
*12093 FILLER_27_1752
*12094 FILLER_27_1816
*12095 FILLER_27_1822
*12096 FILLER_27_1886
*12097 FILLER_27_1892
*12098 FILLER_27_1924
*12099 FILLER_27_1932
*12100 FILLER_27_1936
*12101 FILLER_27_2
*12102 FILLER_27_206
*12103 FILLER_27_212
*12104 FILLER_27_276
*12105 FILLER_27_282
*12106 FILLER_27_346
*12107 FILLER_27_352
*12108 FILLER_27_416
*12109 FILLER_27_422
*12110 FILLER_27_486
*12111 FILLER_27_492
*12112 FILLER_27_556
*12113 FILLER_27_562
*12114 FILLER_27_626
*12115 FILLER_27_632
*12116 FILLER_27_66
*12117 FILLER_27_696
*12118 FILLER_27_702
*12119 FILLER_27_72
*12120 FILLER_27_766
*12121 FILLER_27_772
*12122 FILLER_27_836
*12123 FILLER_27_842
*12124 FILLER_27_906
*12125 FILLER_27_912
*12126 FILLER_27_976
*12127 FILLER_27_982
*12128 FILLER_28_101
*12129 FILLER_28_1011
*12130 FILLER_28_1017
*12131 FILLER_28_107
*12132 FILLER_28_1081
*12133 FILLER_28_1087
*12134 FILLER_28_1151
*12135 FILLER_28_1157
*12136 FILLER_28_1221
*12137 FILLER_28_1227
*12138 FILLER_28_1291
*12139 FILLER_28_1297
*12140 FILLER_28_1361
*12141 FILLER_28_1367
*12142 FILLER_28_1431
*12143 FILLER_28_1437
*12144 FILLER_28_1501
*12145 FILLER_28_1507
*12146 FILLER_28_1571
*12147 FILLER_28_1577
*12148 FILLER_28_1641
*12149 FILLER_28_1647
*12150 FILLER_28_171
*12151 FILLER_28_1711
*12152 FILLER_28_1717
*12153 FILLER_28_177
*12154 FILLER_28_1781
*12155 FILLER_28_1787
*12156 FILLER_28_1851
*12157 FILLER_28_1857
*12158 FILLER_28_1921
*12159 FILLER_28_1927
*12160 FILLER_28_1935
*12161 FILLER_28_1937
*12162 FILLER_28_2
*12163 FILLER_28_241
*12164 FILLER_28_247
*12165 FILLER_28_311
*12166 FILLER_28_317
*12167 FILLER_28_34
*12168 FILLER_28_37
*12169 FILLER_28_381
*12170 FILLER_28_387
*12171 FILLER_28_451
*12172 FILLER_28_457
*12173 FILLER_28_521
*12174 FILLER_28_527
*12175 FILLER_28_591
*12176 FILLER_28_597
*12177 FILLER_28_661
*12178 FILLER_28_667
*12179 FILLER_28_731
*12180 FILLER_28_737
*12181 FILLER_28_801
*12182 FILLER_28_807
*12183 FILLER_28_871
*12184 FILLER_28_877
*12185 FILLER_28_941
*12186 FILLER_28_947
*12187 FILLER_29_1046
*12188 FILLER_29_1052
*12189 FILLER_29_1116
*12190 FILLER_29_1122
*12191 FILLER_29_1186
*12192 FILLER_29_1192
*12193 FILLER_29_1256
*12194 FILLER_29_1262
*12195 FILLER_29_1326
*12196 FILLER_29_1332
*12197 FILLER_29_136
*12198 FILLER_29_1396
*12199 FILLER_29_1402
*12200 FILLER_29_142
*12201 FILLER_29_1466
*12202 FILLER_29_1472
*12203 FILLER_29_1536
*12204 FILLER_29_1542
*12205 FILLER_29_1606
*12206 FILLER_29_1612
*12207 FILLER_29_1676
*12208 FILLER_29_1682
*12209 FILLER_29_1746
*12210 FILLER_29_1752
*12211 FILLER_29_1816
*12212 FILLER_29_1822
*12213 FILLER_29_1886
*12214 FILLER_29_1892
*12215 FILLER_29_1924
*12216 FILLER_29_1932
*12217 FILLER_29_1936
*12218 FILLER_29_2
*12219 FILLER_29_206
*12220 FILLER_29_212
*12221 FILLER_29_276
*12222 FILLER_29_282
*12223 FILLER_29_346
*12224 FILLER_29_352
*12225 FILLER_29_416
*12226 FILLER_29_422
*12227 FILLER_29_486
*12228 FILLER_29_492
*12229 FILLER_29_556
*12230 FILLER_29_562
*12231 FILLER_29_626
*12232 FILLER_29_632
*12233 FILLER_29_66
*12234 FILLER_29_696
*12235 FILLER_29_702
*12236 FILLER_29_72
*12237 FILLER_29_766
*12238 FILLER_29_772
*12239 FILLER_29_836
*12240 FILLER_29_842
*12241 FILLER_29_906
*12242 FILLER_29_912
*12243 FILLER_29_976
*12244 FILLER_29_982
*12245 FILLER_2_1001
*12246 FILLER_2_1005
*12247 FILLER_2_101
*12248 FILLER_2_1011
*12249 FILLER_2_1017
*12250 FILLER_2_1022
*12251 FILLER_2_1028
*12252 FILLER_2_1034
*12253 FILLER_2_1040
*12254 FILLER_2_1046
*12255 FILLER_2_1052
*12256 FILLER_2_1058
*12257 FILLER_2_1064
*12258 FILLER_2_107
*12259 FILLER_2_1070
*12260 FILLER_2_1076
*12261 FILLER_2_1082
*12262 FILLER_2_1084
*12263 FILLER_2_1087
*12264 FILLER_2_1092
*12265 FILLER_2_1098
*12266 FILLER_2_1104
*12267 FILLER_2_1110
*12268 FILLER_2_1116
*12269 FILLER_2_1148
*12270 FILLER_2_1152
*12271 FILLER_2_1154
*12272 FILLER_2_1157
*12273 FILLER_2_1221
*12274 FILLER_2_1227
*12275 FILLER_2_1291
*12276 FILLER_2_1297
*12277 FILLER_2_1361
*12278 FILLER_2_1367
*12279 FILLER_2_1431
*12280 FILLER_2_1437
*12281 FILLER_2_1501
*12282 FILLER_2_1507
*12283 FILLER_2_1571
*12284 FILLER_2_1577
*12285 FILLER_2_1641
*12286 FILLER_2_1647
*12287 FILLER_2_171
*12288 FILLER_2_1711
*12289 FILLER_2_1717
*12290 FILLER_2_177
*12291 FILLER_2_1781
*12292 FILLER_2_1787
*12293 FILLER_2_1851
*12294 FILLER_2_1857
*12295 FILLER_2_1921
*12296 FILLER_2_1927
*12297 FILLER_2_1935
*12298 FILLER_2_1937
*12299 FILLER_2_2
*12300 FILLER_2_241
*12301 FILLER_2_247
*12302 FILLER_2_311
*12303 FILLER_2_317
*12304 FILLER_2_34
*12305 FILLER_2_37
*12306 FILLER_2_381
*12307 FILLER_2_387
*12308 FILLER_2_451
*12309 FILLER_2_457
*12310 FILLER_2_521
*12311 FILLER_2_527
*12312 FILLER_2_591
*12313 FILLER_2_597
*12314 FILLER_2_661
*12315 FILLER_2_667
*12316 FILLER_2_731
*12317 FILLER_2_737
*12318 FILLER_2_801
*12319 FILLER_2_807
*12320 FILLER_2_871
*12321 FILLER_2_877
*12322 FILLER_2_879
*12323 FILLER_2_884
*12324 FILLER_2_890
*12325 FILLER_2_896
*12326 FILLER_2_902
*12327 FILLER_2_908
*12328 FILLER_2_914
*12329 FILLER_2_920
*12330 FILLER_2_926
*12331 FILLER_2_932
*12332 FILLER_2_938
*12333 FILLER_2_944
*12334 FILLER_2_947
*12335 FILLER_2_953
*12336 FILLER_2_959
*12337 FILLER_2_965
*12338 FILLER_2_971
*12339 FILLER_2_977
*12340 FILLER_2_993
*12341 FILLER_30_101
*12342 FILLER_30_1011
*12343 FILLER_30_1017
*12344 FILLER_30_107
*12345 FILLER_30_1081
*12346 FILLER_30_1087
*12347 FILLER_30_1151
*12348 FILLER_30_1157
*12349 FILLER_30_1221
*12350 FILLER_30_1227
*12351 FILLER_30_1291
*12352 FILLER_30_1297
*12353 FILLER_30_1361
*12354 FILLER_30_1367
*12355 FILLER_30_1431
*12356 FILLER_30_1437
*12357 FILLER_30_1501
*12358 FILLER_30_1507
*12359 FILLER_30_1571
*12360 FILLER_30_1577
*12361 FILLER_30_1641
*12362 FILLER_30_1647
*12363 FILLER_30_171
*12364 FILLER_30_1711
*12365 FILLER_30_1717
*12366 FILLER_30_177
*12367 FILLER_30_1781
*12368 FILLER_30_1787
*12369 FILLER_30_1851
*12370 FILLER_30_1857
*12371 FILLER_30_1921
*12372 FILLER_30_1927
*12373 FILLER_30_1935
*12374 FILLER_30_1937
*12375 FILLER_30_2
*12376 FILLER_30_241
*12377 FILLER_30_247
*12378 FILLER_30_311
*12379 FILLER_30_317
*12380 FILLER_30_34
*12381 FILLER_30_37
*12382 FILLER_30_381
*12383 FILLER_30_387
*12384 FILLER_30_451
*12385 FILLER_30_457
*12386 FILLER_30_521
*12387 FILLER_30_527
*12388 FILLER_30_591
*12389 FILLER_30_597
*12390 FILLER_30_661
*12391 FILLER_30_667
*12392 FILLER_30_731
*12393 FILLER_30_737
*12394 FILLER_30_801
*12395 FILLER_30_807
*12396 FILLER_30_871
*12397 FILLER_30_877
*12398 FILLER_30_941
*12399 FILLER_30_947
*12400 FILLER_31_1046
*12401 FILLER_31_1052
*12402 FILLER_31_1116
*12403 FILLER_31_1122
*12404 FILLER_31_1186
*12405 FILLER_31_1192
*12406 FILLER_31_1256
*12407 FILLER_31_1262
*12408 FILLER_31_1326
*12409 FILLER_31_1332
*12410 FILLER_31_136
*12411 FILLER_31_1396
*12412 FILLER_31_1402
*12413 FILLER_31_142
*12414 FILLER_31_1466
*12415 FILLER_31_1472
*12416 FILLER_31_1536
*12417 FILLER_31_1542
*12418 FILLER_31_1606
*12419 FILLER_31_1612
*12420 FILLER_31_1676
*12421 FILLER_31_1682
*12422 FILLER_31_1746
*12423 FILLER_31_1752
*12424 FILLER_31_1816
*12425 FILLER_31_1822
*12426 FILLER_31_1886
*12427 FILLER_31_1892
*12428 FILLER_31_1924
*12429 FILLER_31_1932
*12430 FILLER_31_1936
*12431 FILLER_31_2
*12432 FILLER_31_206
*12433 FILLER_31_212
*12434 FILLER_31_276
*12435 FILLER_31_282
*12436 FILLER_31_346
*12437 FILLER_31_352
*12438 FILLER_31_416
*12439 FILLER_31_422
*12440 FILLER_31_486
*12441 FILLER_31_492
*12442 FILLER_31_556
*12443 FILLER_31_562
*12444 FILLER_31_626
*12445 FILLER_31_632
*12446 FILLER_31_66
*12447 FILLER_31_696
*12448 FILLER_31_702
*12449 FILLER_31_72
*12450 FILLER_31_766
*12451 FILLER_31_772
*12452 FILLER_31_836
*12453 FILLER_31_842
*12454 FILLER_31_906
*12455 FILLER_31_912
*12456 FILLER_31_976
*12457 FILLER_31_982
*12458 FILLER_32_101
*12459 FILLER_32_1011
*12460 FILLER_32_1017
*12461 FILLER_32_107
*12462 FILLER_32_1081
*12463 FILLER_32_1087
*12464 FILLER_32_1151
*12465 FILLER_32_1157
*12466 FILLER_32_1221
*12467 FILLER_32_1227
*12468 FILLER_32_1291
*12469 FILLER_32_1297
*12470 FILLER_32_1361
*12471 FILLER_32_1367
*12472 FILLER_32_1431
*12473 FILLER_32_1437
*12474 FILLER_32_1501
*12475 FILLER_32_1507
*12476 FILLER_32_1571
*12477 FILLER_32_1577
*12478 FILLER_32_1641
*12479 FILLER_32_1647
*12480 FILLER_32_171
*12481 FILLER_32_1711
*12482 FILLER_32_1717
*12483 FILLER_32_177
*12484 FILLER_32_1781
*12485 FILLER_32_1787
*12486 FILLER_32_1851
*12487 FILLER_32_1857
*12488 FILLER_32_1921
*12489 FILLER_32_1927
*12490 FILLER_32_1935
*12491 FILLER_32_1937
*12492 FILLER_32_2
*12493 FILLER_32_241
*12494 FILLER_32_247
*12495 FILLER_32_311
*12496 FILLER_32_317
*12497 FILLER_32_34
*12498 FILLER_32_37
*12499 FILLER_32_381
*12500 FILLER_32_387
*12501 FILLER_32_451
*12502 FILLER_32_457
*12503 FILLER_32_521
*12504 FILLER_32_527
*12505 FILLER_32_591
*12506 FILLER_32_597
*12507 FILLER_32_661
*12508 FILLER_32_667
*12509 FILLER_32_731
*12510 FILLER_32_737
*12511 FILLER_32_801
*12512 FILLER_32_807
*12513 FILLER_32_871
*12514 FILLER_32_877
*12515 FILLER_32_941
*12516 FILLER_32_947
*12517 FILLER_33_1046
*12518 FILLER_33_1052
*12519 FILLER_33_1116
*12520 FILLER_33_1122
*12521 FILLER_33_1186
*12522 FILLER_33_1192
*12523 FILLER_33_1256
*12524 FILLER_33_1262
*12525 FILLER_33_1326
*12526 FILLER_33_1332
*12527 FILLER_33_136
*12528 FILLER_33_1396
*12529 FILLER_33_1402
*12530 FILLER_33_142
*12531 FILLER_33_1466
*12532 FILLER_33_1472
*12533 FILLER_33_1536
*12534 FILLER_33_1542
*12535 FILLER_33_1606
*12536 FILLER_33_1612
*12537 FILLER_33_1676
*12538 FILLER_33_1682
*12539 FILLER_33_1746
*12540 FILLER_33_1752
*12541 FILLER_33_1816
*12542 FILLER_33_1822
*12543 FILLER_33_1886
*12544 FILLER_33_1892
*12545 FILLER_33_1924
*12546 FILLER_33_1932
*12547 FILLER_33_1936
*12548 FILLER_33_2
*12549 FILLER_33_206
*12550 FILLER_33_212
*12551 FILLER_33_276
*12552 FILLER_33_282
*12553 FILLER_33_346
*12554 FILLER_33_352
*12555 FILLER_33_416
*12556 FILLER_33_422
*12557 FILLER_33_486
*12558 FILLER_33_492
*12559 FILLER_33_556
*12560 FILLER_33_562
*12561 FILLER_33_626
*12562 FILLER_33_632
*12563 FILLER_33_66
*12564 FILLER_33_696
*12565 FILLER_33_702
*12566 FILLER_33_72
*12567 FILLER_33_766
*12568 FILLER_33_772
*12569 FILLER_33_836
*12570 FILLER_33_842
*12571 FILLER_33_906
*12572 FILLER_33_912
*12573 FILLER_33_976
*12574 FILLER_33_982
*12575 FILLER_34_101
*12576 FILLER_34_1011
*12577 FILLER_34_1017
*12578 FILLER_34_107
*12579 FILLER_34_1081
*12580 FILLER_34_1087
*12581 FILLER_34_1151
*12582 FILLER_34_1157
*12583 FILLER_34_1221
*12584 FILLER_34_1227
*12585 FILLER_34_1291
*12586 FILLER_34_1297
*12587 FILLER_34_1361
*12588 FILLER_34_1367
*12589 FILLER_34_1431
*12590 FILLER_34_1437
*12591 FILLER_34_1501
*12592 FILLER_34_1507
*12593 FILLER_34_1571
*12594 FILLER_34_1577
*12595 FILLER_34_1641
*12596 FILLER_34_1647
*12597 FILLER_34_171
*12598 FILLER_34_1711
*12599 FILLER_34_1717
*12600 FILLER_34_177
*12601 FILLER_34_1781
*12602 FILLER_34_1787
*12603 FILLER_34_1851
*12604 FILLER_34_1857
*12605 FILLER_34_1921
*12606 FILLER_34_1927
*12607 FILLER_34_1935
*12608 FILLER_34_1937
*12609 FILLER_34_2
*12610 FILLER_34_241
*12611 FILLER_34_247
*12612 FILLER_34_311
*12613 FILLER_34_317
*12614 FILLER_34_34
*12615 FILLER_34_37
*12616 FILLER_34_381
*12617 FILLER_34_387
*12618 FILLER_34_451
*12619 FILLER_34_457
*12620 FILLER_34_521
*12621 FILLER_34_527
*12622 FILLER_34_591
*12623 FILLER_34_597
*12624 FILLER_34_661
*12625 FILLER_34_667
*12626 FILLER_34_731
*12627 FILLER_34_737
*12628 FILLER_34_801
*12629 FILLER_34_807
*12630 FILLER_34_871
*12631 FILLER_34_877
*12632 FILLER_34_941
*12633 FILLER_34_947
*12634 FILLER_35_1046
*12635 FILLER_35_1052
*12636 FILLER_35_1116
*12637 FILLER_35_1122
*12638 FILLER_35_1186
*12639 FILLER_35_1192
*12640 FILLER_35_1256
*12641 FILLER_35_1262
*12642 FILLER_35_1326
*12643 FILLER_35_1332
*12644 FILLER_35_136
*12645 FILLER_35_1396
*12646 FILLER_35_1402
*12647 FILLER_35_142
*12648 FILLER_35_1466
*12649 FILLER_35_1472
*12650 FILLER_35_1536
*12651 FILLER_35_1542
*12652 FILLER_35_1606
*12653 FILLER_35_1612
*12654 FILLER_35_1676
*12655 FILLER_35_1682
*12656 FILLER_35_1746
*12657 FILLER_35_1752
*12658 FILLER_35_1816
*12659 FILLER_35_1822
*12660 FILLER_35_1886
*12661 FILLER_35_1892
*12662 FILLER_35_1924
*12663 FILLER_35_1932
*12664 FILLER_35_1936
*12665 FILLER_35_2
*12666 FILLER_35_206
*12667 FILLER_35_212
*12668 FILLER_35_276
*12669 FILLER_35_282
*12670 FILLER_35_346
*12671 FILLER_35_352
*12672 FILLER_35_416
*12673 FILLER_35_422
*12674 FILLER_35_486
*12675 FILLER_35_492
*12676 FILLER_35_556
*12677 FILLER_35_562
*12678 FILLER_35_626
*12679 FILLER_35_632
*12680 FILLER_35_66
*12681 FILLER_35_696
*12682 FILLER_35_702
*12683 FILLER_35_72
*12684 FILLER_35_766
*12685 FILLER_35_772
*12686 FILLER_35_836
*12687 FILLER_35_842
*12688 FILLER_35_906
*12689 FILLER_35_912
*12690 FILLER_35_976
*12691 FILLER_35_982
*12692 FILLER_36_101
*12693 FILLER_36_1011
*12694 FILLER_36_1017
*12695 FILLER_36_107
*12696 FILLER_36_1081
*12697 FILLER_36_1087
*12698 FILLER_36_1151
*12699 FILLER_36_1157
*12700 FILLER_36_1221
*12701 FILLER_36_1227
*12702 FILLER_36_1291
*12703 FILLER_36_1297
*12704 FILLER_36_1361
*12705 FILLER_36_1367
*12706 FILLER_36_1431
*12707 FILLER_36_1437
*12708 FILLER_36_1501
*12709 FILLER_36_1507
*12710 FILLER_36_1571
*12711 FILLER_36_1577
*12712 FILLER_36_1641
*12713 FILLER_36_1647
*12714 FILLER_36_171
*12715 FILLER_36_1711
*12716 FILLER_36_1717
*12717 FILLER_36_177
*12718 FILLER_36_1781
*12719 FILLER_36_1787
*12720 FILLER_36_1851
*12721 FILLER_36_1857
*12722 FILLER_36_1921
*12723 FILLER_36_1927
*12724 FILLER_36_1935
*12725 FILLER_36_1937
*12726 FILLER_36_2
*12727 FILLER_36_241
*12728 FILLER_36_247
*12729 FILLER_36_311
*12730 FILLER_36_317
*12731 FILLER_36_34
*12732 FILLER_36_37
*12733 FILLER_36_381
*12734 FILLER_36_387
*12735 FILLER_36_451
*12736 FILLER_36_457
*12737 FILLER_36_521
*12738 FILLER_36_527
*12739 FILLER_36_591
*12740 FILLER_36_597
*12741 FILLER_36_661
*12742 FILLER_36_667
*12743 FILLER_36_731
*12744 FILLER_36_737
*12745 FILLER_36_801
*12746 FILLER_36_807
*12747 FILLER_36_871
*12748 FILLER_36_877
*12749 FILLER_36_941
*12750 FILLER_36_947
*12751 FILLER_37_1046
*12752 FILLER_37_1052
*12753 FILLER_37_1116
*12754 FILLER_37_1122
*12755 FILLER_37_1186
*12756 FILLER_37_1192
*12757 FILLER_37_1256
*12758 FILLER_37_1262
*12759 FILLER_37_1326
*12760 FILLER_37_1332
*12761 FILLER_37_136
*12762 FILLER_37_1396
*12763 FILLER_37_1402
*12764 FILLER_37_142
*12765 FILLER_37_1466
*12766 FILLER_37_1472
*12767 FILLER_37_1536
*12768 FILLER_37_1542
*12769 FILLER_37_1606
*12770 FILLER_37_1612
*12771 FILLER_37_1676
*12772 FILLER_37_1682
*12773 FILLER_37_1746
*12774 FILLER_37_1752
*12775 FILLER_37_1816
*12776 FILLER_37_1822
*12777 FILLER_37_1886
*12778 FILLER_37_1892
*12779 FILLER_37_1924
*12780 FILLER_37_1932
*12781 FILLER_37_1936
*12782 FILLER_37_2
*12783 FILLER_37_206
*12784 FILLER_37_212
*12785 FILLER_37_276
*12786 FILLER_37_282
*12787 FILLER_37_346
*12788 FILLER_37_352
*12789 FILLER_37_416
*12790 FILLER_37_422
*12791 FILLER_37_486
*12792 FILLER_37_492
*12793 FILLER_37_556
*12794 FILLER_37_562
*12795 FILLER_37_626
*12796 FILLER_37_632
*12797 FILLER_37_66
*12798 FILLER_37_696
*12799 FILLER_37_702
*12800 FILLER_37_72
*12801 FILLER_37_766
*12802 FILLER_37_772
*12803 FILLER_37_836
*12804 FILLER_37_842
*12805 FILLER_37_906
*12806 FILLER_37_912
*12807 FILLER_37_976
*12808 FILLER_37_982
*12809 FILLER_38_101
*12810 FILLER_38_1011
*12811 FILLER_38_1017
*12812 FILLER_38_107
*12813 FILLER_38_1081
*12814 FILLER_38_1087
*12815 FILLER_38_1151
*12816 FILLER_38_1157
*12817 FILLER_38_1221
*12818 FILLER_38_1227
*12819 FILLER_38_1291
*12820 FILLER_38_1297
*12821 FILLER_38_1361
*12822 FILLER_38_1367
*12823 FILLER_38_1431
*12824 FILLER_38_1437
*12825 FILLER_38_1501
*12826 FILLER_38_1507
*12827 FILLER_38_1571
*12828 FILLER_38_1577
*12829 FILLER_38_1641
*12830 FILLER_38_1647
*12831 FILLER_38_171
*12832 FILLER_38_1711
*12833 FILLER_38_1717
*12834 FILLER_38_177
*12835 FILLER_38_1781
*12836 FILLER_38_1787
*12837 FILLER_38_1851
*12838 FILLER_38_1857
*12839 FILLER_38_1921
*12840 FILLER_38_1927
*12841 FILLER_38_1935
*12842 FILLER_38_1937
*12843 FILLER_38_2
*12844 FILLER_38_241
*12845 FILLER_38_247
*12846 FILLER_38_311
*12847 FILLER_38_317
*12848 FILLER_38_34
*12849 FILLER_38_37
*12850 FILLER_38_381
*12851 FILLER_38_387
*12852 FILLER_38_451
*12853 FILLER_38_457
*12854 FILLER_38_521
*12855 FILLER_38_527
*12856 FILLER_38_591
*12857 FILLER_38_597
*12858 FILLER_38_661
*12859 FILLER_38_667
*12860 FILLER_38_731
*12861 FILLER_38_737
*12862 FILLER_38_801
*12863 FILLER_38_807
*12864 FILLER_38_871
*12865 FILLER_38_877
*12866 FILLER_38_941
*12867 FILLER_38_947
*12868 FILLER_39_1046
*12869 FILLER_39_1052
*12870 FILLER_39_1116
*12871 FILLER_39_1122
*12872 FILLER_39_1186
*12873 FILLER_39_1192
*12874 FILLER_39_1256
*12875 FILLER_39_1262
*12876 FILLER_39_1326
*12877 FILLER_39_1332
*12878 FILLER_39_136
*12879 FILLER_39_1396
*12880 FILLER_39_1402
*12881 FILLER_39_142
*12882 FILLER_39_1466
*12883 FILLER_39_1472
*12884 FILLER_39_1536
*12885 FILLER_39_1542
*12886 FILLER_39_1606
*12887 FILLER_39_1612
*12888 FILLER_39_1676
*12889 FILLER_39_1682
*12890 FILLER_39_1746
*12891 FILLER_39_1752
*12892 FILLER_39_1816
*12893 FILLER_39_1822
*12894 FILLER_39_1886
*12895 FILLER_39_1892
*12896 FILLER_39_1924
*12897 FILLER_39_1932
*12898 FILLER_39_1936
*12899 FILLER_39_2
*12900 FILLER_39_206
*12901 FILLER_39_212
*12902 FILLER_39_276
*12903 FILLER_39_282
*12904 FILLER_39_346
*12905 FILLER_39_352
*12906 FILLER_39_416
*12907 FILLER_39_422
*12908 FILLER_39_486
*12909 FILLER_39_492
*12910 FILLER_39_556
*12911 FILLER_39_562
*12912 FILLER_39_626
*12913 FILLER_39_632
*12914 FILLER_39_66
*12915 FILLER_39_696
*12916 FILLER_39_702
*12917 FILLER_39_72
*12918 FILLER_39_766
*12919 FILLER_39_772
*12920 FILLER_39_836
*12921 FILLER_39_842
*12922 FILLER_39_906
*12923 FILLER_39_912
*12924 FILLER_39_976
*12925 FILLER_39_982
*12926 FILLER_3_1046
*12927 FILLER_3_1052
*12928 FILLER_3_1068
*12929 FILLER_3_1073
*12930 FILLER_3_1085
*12931 FILLER_3_1101
*12932 FILLER_3_1113
*12933 FILLER_3_1117
*12934 FILLER_3_1119
*12935 FILLER_3_1122
*12936 FILLER_3_1186
*12937 FILLER_3_1192
*12938 FILLER_3_1256
*12939 FILLER_3_1262
*12940 FILLER_3_1326
*12941 FILLER_3_1332
*12942 FILLER_3_136
*12943 FILLER_3_1396
*12944 FILLER_3_1402
*12945 FILLER_3_142
*12946 FILLER_3_1466
*12947 FILLER_3_1472
*12948 FILLER_3_1536
*12949 FILLER_3_1542
*12950 FILLER_3_1606
*12951 FILLER_3_1612
*12952 FILLER_3_1676
*12953 FILLER_3_1682
*12954 FILLER_3_1746
*12955 FILLER_3_1752
*12956 FILLER_3_1816
*12957 FILLER_3_1822
*12958 FILLER_3_1886
*12959 FILLER_3_1892
*12960 FILLER_3_1924
*12961 FILLER_3_1932
*12962 FILLER_3_1936
*12963 FILLER_3_2
*12964 FILLER_3_206
*12965 FILLER_3_212
*12966 FILLER_3_276
*12967 FILLER_3_282
*12968 FILLER_3_346
*12969 FILLER_3_352
*12970 FILLER_3_416
*12971 FILLER_3_422
*12972 FILLER_3_486
*12973 FILLER_3_492
*12974 FILLER_3_556
*12975 FILLER_3_562
*12976 FILLER_3_626
*12977 FILLER_3_632
*12978 FILLER_3_66
*12979 FILLER_3_696
*12980 FILLER_3_702
*12981 FILLER_3_72
*12982 FILLER_3_766
*12983 FILLER_3_772
*12984 FILLER_3_836
*12985 FILLER_3_842
*12986 FILLER_3_874
*12987 FILLER_3_890
*12988 FILLER_3_898
*12989 FILLER_3_900
*12990 FILLER_3_905
*12991 FILLER_3_909
*12992 FILLER_3_912
*12993 FILLER_3_944
*12994 FILLER_3_952
*12995 FILLER_3_954
*12996 FILLER_3_957
*12997 FILLER_3_973
*12998 FILLER_3_977
*12999 FILLER_3_979
*13000 FILLER_3_982
*13001 FILLER_40_101
*13002 FILLER_40_1011
*13003 FILLER_40_1017
*13004 FILLER_40_107
*13005 FILLER_40_1081
*13006 FILLER_40_1087
*13007 FILLER_40_1151
*13008 FILLER_40_1157
*13009 FILLER_40_1221
*13010 FILLER_40_1227
*13011 FILLER_40_1291
*13012 FILLER_40_1297
*13013 FILLER_40_1361
*13014 FILLER_40_1367
*13015 FILLER_40_1431
*13016 FILLER_40_1437
*13017 FILLER_40_1501
*13018 FILLER_40_1507
*13019 FILLER_40_1571
*13020 FILLER_40_1577
*13021 FILLER_40_1641
*13022 FILLER_40_1647
*13023 FILLER_40_171
*13024 FILLER_40_1711
*13025 FILLER_40_1717
*13026 FILLER_40_177
*13027 FILLER_40_1781
*13028 FILLER_40_1787
*13029 FILLER_40_1851
*13030 FILLER_40_1857
*13031 FILLER_40_1921
*13032 FILLER_40_1927
*13033 FILLER_40_1935
*13034 FILLER_40_1937
*13035 FILLER_40_2
*13036 FILLER_40_241
*13037 FILLER_40_247
*13038 FILLER_40_311
*13039 FILLER_40_317
*13040 FILLER_40_34
*13041 FILLER_40_37
*13042 FILLER_40_381
*13043 FILLER_40_387
*13044 FILLER_40_451
*13045 FILLER_40_457
*13046 FILLER_40_521
*13047 FILLER_40_527
*13048 FILLER_40_591
*13049 FILLER_40_597
*13050 FILLER_40_661
*13051 FILLER_40_667
*13052 FILLER_40_731
*13053 FILLER_40_737
*13054 FILLER_40_801
*13055 FILLER_40_807
*13056 FILLER_40_871
*13057 FILLER_40_877
*13058 FILLER_40_941
*13059 FILLER_40_947
*13060 FILLER_41_1046
*13061 FILLER_41_1052
*13062 FILLER_41_1116
*13063 FILLER_41_1122
*13064 FILLER_41_1186
*13065 FILLER_41_1192
*13066 FILLER_41_1256
*13067 FILLER_41_1262
*13068 FILLER_41_1326
*13069 FILLER_41_1332
*13070 FILLER_41_136
*13071 FILLER_41_1396
*13072 FILLER_41_1402
*13073 FILLER_41_142
*13074 FILLER_41_1466
*13075 FILLER_41_1472
*13076 FILLER_41_1536
*13077 FILLER_41_1542
*13078 FILLER_41_1606
*13079 FILLER_41_1612
*13080 FILLER_41_1676
*13081 FILLER_41_1682
*13082 FILLER_41_1746
*13083 FILLER_41_1752
*13084 FILLER_41_1816
*13085 FILLER_41_1822
*13086 FILLER_41_1886
*13087 FILLER_41_1892
*13088 FILLER_41_1924
*13089 FILLER_41_1932
*13090 FILLER_41_1936
*13091 FILLER_41_2
*13092 FILLER_41_206
*13093 FILLER_41_212
*13094 FILLER_41_276
*13095 FILLER_41_282
*13096 FILLER_41_346
*13097 FILLER_41_352
*13098 FILLER_41_416
*13099 FILLER_41_422
*13100 FILLER_41_486
*13101 FILLER_41_492
*13102 FILLER_41_556
*13103 FILLER_41_562
*13104 FILLER_41_626
*13105 FILLER_41_632
*13106 FILLER_41_66
*13107 FILLER_41_696
*13108 FILLER_41_702
*13109 FILLER_41_72
*13110 FILLER_41_766
*13111 FILLER_41_772
*13112 FILLER_41_836
*13113 FILLER_41_842
*13114 FILLER_41_906
*13115 FILLER_41_912
*13116 FILLER_41_976
*13117 FILLER_41_982
*13118 FILLER_42_101
*13119 FILLER_42_1011
*13120 FILLER_42_1017
*13121 FILLER_42_107
*13122 FILLER_42_1081
*13123 FILLER_42_1087
*13124 FILLER_42_1151
*13125 FILLER_42_1157
*13126 FILLER_42_1221
*13127 FILLER_42_1227
*13128 FILLER_42_1291
*13129 FILLER_42_1297
*13130 FILLER_42_1361
*13131 FILLER_42_1367
*13132 FILLER_42_1431
*13133 FILLER_42_1437
*13134 FILLER_42_1501
*13135 FILLER_42_1507
*13136 FILLER_42_1571
*13137 FILLER_42_1577
*13138 FILLER_42_1641
*13139 FILLER_42_1647
*13140 FILLER_42_171
*13141 FILLER_42_1711
*13142 FILLER_42_1717
*13143 FILLER_42_177
*13144 FILLER_42_1781
*13145 FILLER_42_1787
*13146 FILLER_42_1851
*13147 FILLER_42_1857
*13148 FILLER_42_1921
*13149 FILLER_42_1927
*13150 FILLER_42_1935
*13151 FILLER_42_1937
*13152 FILLER_42_2
*13153 FILLER_42_241
*13154 FILLER_42_247
*13155 FILLER_42_311
*13156 FILLER_42_317
*13157 FILLER_42_34
*13158 FILLER_42_37
*13159 FILLER_42_381
*13160 FILLER_42_387
*13161 FILLER_42_451
*13162 FILLER_42_457
*13163 FILLER_42_521
*13164 FILLER_42_527
*13165 FILLER_42_591
*13166 FILLER_42_597
*13167 FILLER_42_661
*13168 FILLER_42_667
*13169 FILLER_42_731
*13170 FILLER_42_737
*13171 FILLER_42_801
*13172 FILLER_42_807
*13173 FILLER_42_871
*13174 FILLER_42_877
*13175 FILLER_42_941
*13176 FILLER_42_947
*13177 FILLER_43_1046
*13178 FILLER_43_1052
*13179 FILLER_43_1116
*13180 FILLER_43_1122
*13181 FILLER_43_1186
*13182 FILLER_43_1192
*13183 FILLER_43_1256
*13184 FILLER_43_1262
*13185 FILLER_43_1326
*13186 FILLER_43_1332
*13187 FILLER_43_136
*13188 FILLER_43_1396
*13189 FILLER_43_1402
*13190 FILLER_43_142
*13191 FILLER_43_1466
*13192 FILLER_43_1472
*13193 FILLER_43_1536
*13194 FILLER_43_1542
*13195 FILLER_43_1606
*13196 FILLER_43_1612
*13197 FILLER_43_1676
*13198 FILLER_43_1682
*13199 FILLER_43_1746
*13200 FILLER_43_1752
*13201 FILLER_43_1816
*13202 FILLER_43_1822
*13203 FILLER_43_1886
*13204 FILLER_43_1892
*13205 FILLER_43_1924
*13206 FILLER_43_1932
*13207 FILLER_43_1936
*13208 FILLER_43_2
*13209 FILLER_43_206
*13210 FILLER_43_212
*13211 FILLER_43_276
*13212 FILLER_43_282
*13213 FILLER_43_346
*13214 FILLER_43_352
*13215 FILLER_43_416
*13216 FILLER_43_422
*13217 FILLER_43_486
*13218 FILLER_43_492
*13219 FILLER_43_556
*13220 FILLER_43_562
*13221 FILLER_43_626
*13222 FILLER_43_632
*13223 FILLER_43_66
*13224 FILLER_43_696
*13225 FILLER_43_702
*13226 FILLER_43_72
*13227 FILLER_43_766
*13228 FILLER_43_772
*13229 FILLER_43_836
*13230 FILLER_43_842
*13231 FILLER_43_906
*13232 FILLER_43_912
*13233 FILLER_43_976
*13234 FILLER_43_982
*13235 FILLER_44_101
*13236 FILLER_44_1011
*13237 FILLER_44_1017
*13238 FILLER_44_107
*13239 FILLER_44_1081
*13240 FILLER_44_1087
*13241 FILLER_44_1151
*13242 FILLER_44_1157
*13243 FILLER_44_1221
*13244 FILLER_44_1227
*13245 FILLER_44_1291
*13246 FILLER_44_1297
*13247 FILLER_44_1361
*13248 FILLER_44_1367
*13249 FILLER_44_1431
*13250 FILLER_44_1437
*13251 FILLER_44_1501
*13252 FILLER_44_1507
*13253 FILLER_44_1571
*13254 FILLER_44_1577
*13255 FILLER_44_1641
*13256 FILLER_44_1647
*13257 FILLER_44_171
*13258 FILLER_44_1711
*13259 FILLER_44_1717
*13260 FILLER_44_177
*13261 FILLER_44_1781
*13262 FILLER_44_1787
*13263 FILLER_44_1851
*13264 FILLER_44_1857
*13265 FILLER_44_1921
*13266 FILLER_44_1927
*13267 FILLER_44_1935
*13268 FILLER_44_1937
*13269 FILLER_44_2
*13270 FILLER_44_241
*13271 FILLER_44_247
*13272 FILLER_44_311
*13273 FILLER_44_317
*13274 FILLER_44_34
*13275 FILLER_44_37
*13276 FILLER_44_381
*13277 FILLER_44_387
*13278 FILLER_44_451
*13279 FILLER_44_457
*13280 FILLER_44_521
*13281 FILLER_44_527
*13282 FILLER_44_591
*13283 FILLER_44_597
*13284 FILLER_44_661
*13285 FILLER_44_667
*13286 FILLER_44_731
*13287 FILLER_44_737
*13288 FILLER_44_801
*13289 FILLER_44_807
*13290 FILLER_44_871
*13291 FILLER_44_877
*13292 FILLER_44_941
*13293 FILLER_44_947
*13294 FILLER_45_1046
*13295 FILLER_45_1052
*13296 FILLER_45_1116
*13297 FILLER_45_1122
*13298 FILLER_45_1186
*13299 FILLER_45_1192
*13300 FILLER_45_1256
*13301 FILLER_45_1262
*13302 FILLER_45_1326
*13303 FILLER_45_1332
*13304 FILLER_45_136
*13305 FILLER_45_1396
*13306 FILLER_45_1402
*13307 FILLER_45_142
*13308 FILLER_45_1466
*13309 FILLER_45_1472
*13310 FILLER_45_1536
*13311 FILLER_45_1542
*13312 FILLER_45_1606
*13313 FILLER_45_1612
*13314 FILLER_45_1676
*13315 FILLER_45_1682
*13316 FILLER_45_1746
*13317 FILLER_45_1752
*13318 FILLER_45_1816
*13319 FILLER_45_1822
*13320 FILLER_45_1886
*13321 FILLER_45_1892
*13322 FILLER_45_1924
*13323 FILLER_45_1932
*13324 FILLER_45_1936
*13325 FILLER_45_2
*13326 FILLER_45_206
*13327 FILLER_45_212
*13328 FILLER_45_276
*13329 FILLER_45_282
*13330 FILLER_45_346
*13331 FILLER_45_352
*13332 FILLER_45_416
*13333 FILLER_45_422
*13334 FILLER_45_486
*13335 FILLER_45_492
*13336 FILLER_45_556
*13337 FILLER_45_562
*13338 FILLER_45_626
*13339 FILLER_45_632
*13340 FILLER_45_66
*13341 FILLER_45_696
*13342 FILLER_45_702
*13343 FILLER_45_72
*13344 FILLER_45_766
*13345 FILLER_45_772
*13346 FILLER_45_836
*13347 FILLER_45_842
*13348 FILLER_45_906
*13349 FILLER_45_912
*13350 FILLER_45_976
*13351 FILLER_45_982
*13352 FILLER_46_101
*13353 FILLER_46_1011
*13354 FILLER_46_1017
*13355 FILLER_46_107
*13356 FILLER_46_1081
*13357 FILLER_46_1087
*13358 FILLER_46_1151
*13359 FILLER_46_1157
*13360 FILLER_46_1221
*13361 FILLER_46_1227
*13362 FILLER_46_1291
*13363 FILLER_46_1297
*13364 FILLER_46_1361
*13365 FILLER_46_1367
*13366 FILLER_46_1431
*13367 FILLER_46_1437
*13368 FILLER_46_1501
*13369 FILLER_46_1507
*13370 FILLER_46_1571
*13371 FILLER_46_1577
*13372 FILLER_46_1641
*13373 FILLER_46_1647
*13374 FILLER_46_171
*13375 FILLER_46_1711
*13376 FILLER_46_1717
*13377 FILLER_46_177
*13378 FILLER_46_1781
*13379 FILLER_46_1787
*13380 FILLER_46_1851
*13381 FILLER_46_1857
*13382 FILLER_46_1921
*13383 FILLER_46_1927
*13384 FILLER_46_1935
*13385 FILLER_46_1937
*13386 FILLER_46_2
*13387 FILLER_46_241
*13388 FILLER_46_247
*13389 FILLER_46_311
*13390 FILLER_46_317
*13391 FILLER_46_34
*13392 FILLER_46_37
*13393 FILLER_46_381
*13394 FILLER_46_387
*13395 FILLER_46_451
*13396 FILLER_46_457
*13397 FILLER_46_521
*13398 FILLER_46_527
*13399 FILLER_46_591
*13400 FILLER_46_597
*13401 FILLER_46_661
*13402 FILLER_46_667
*13403 FILLER_46_731
*13404 FILLER_46_737
*13405 FILLER_46_801
*13406 FILLER_46_807
*13407 FILLER_46_871
*13408 FILLER_46_877
*13409 FILLER_46_941
*13410 FILLER_46_947
*13411 FILLER_47_1046
*13412 FILLER_47_1052
*13413 FILLER_47_1116
*13414 FILLER_47_1122
*13415 FILLER_47_1186
*13416 FILLER_47_1192
*13417 FILLER_47_1256
*13418 FILLER_47_1262
*13419 FILLER_47_1326
*13420 FILLER_47_1332
*13421 FILLER_47_136
*13422 FILLER_47_1396
*13423 FILLER_47_1402
*13424 FILLER_47_142
*13425 FILLER_47_1466
*13426 FILLER_47_1472
*13427 FILLER_47_1536
*13428 FILLER_47_1542
*13429 FILLER_47_1606
*13430 FILLER_47_1612
*13431 FILLER_47_1676
*13432 FILLER_47_1682
*13433 FILLER_47_1746
*13434 FILLER_47_1752
*13435 FILLER_47_1816
*13436 FILLER_47_1822
*13437 FILLER_47_1886
*13438 FILLER_47_1892
*13439 FILLER_47_1924
*13440 FILLER_47_1932
*13441 FILLER_47_1936
*13442 FILLER_47_2
*13443 FILLER_47_206
*13444 FILLER_47_212
*13445 FILLER_47_276
*13446 FILLER_47_282
*13447 FILLER_47_346
*13448 FILLER_47_352
*13449 FILLER_47_416
*13450 FILLER_47_422
*13451 FILLER_47_486
*13452 FILLER_47_492
*13453 FILLER_47_556
*13454 FILLER_47_562
*13455 FILLER_47_626
*13456 FILLER_47_632
*13457 FILLER_47_66
*13458 FILLER_47_696
*13459 FILLER_47_702
*13460 FILLER_47_72
*13461 FILLER_47_766
*13462 FILLER_47_772
*13463 FILLER_47_836
*13464 FILLER_47_842
*13465 FILLER_47_906
*13466 FILLER_47_912
*13467 FILLER_47_976
*13468 FILLER_47_982
*13469 FILLER_48_101
*13470 FILLER_48_1011
*13471 FILLER_48_1017
*13472 FILLER_48_107
*13473 FILLER_48_1081
*13474 FILLER_48_1087
*13475 FILLER_48_1151
*13476 FILLER_48_1157
*13477 FILLER_48_1221
*13478 FILLER_48_1227
*13479 FILLER_48_1291
*13480 FILLER_48_1297
*13481 FILLER_48_1361
*13482 FILLER_48_1367
*13483 FILLER_48_1431
*13484 FILLER_48_1437
*13485 FILLER_48_1501
*13486 FILLER_48_1507
*13487 FILLER_48_1571
*13488 FILLER_48_1577
*13489 FILLER_48_1641
*13490 FILLER_48_1647
*13491 FILLER_48_171
*13492 FILLER_48_1711
*13493 FILLER_48_1717
*13494 FILLER_48_177
*13495 FILLER_48_1781
*13496 FILLER_48_1787
*13497 FILLER_48_1851
*13498 FILLER_48_1857
*13499 FILLER_48_1921
*13500 FILLER_48_1927
*13501 FILLER_48_1935
*13502 FILLER_48_1937
*13503 FILLER_48_2
*13504 FILLER_48_241
*13505 FILLER_48_247
*13506 FILLER_48_311
*13507 FILLER_48_317
*13508 FILLER_48_34
*13509 FILLER_48_37
*13510 FILLER_48_381
*13511 FILLER_48_387
*13512 FILLER_48_451
*13513 FILLER_48_457
*13514 FILLER_48_521
*13515 FILLER_48_527
*13516 FILLER_48_591
*13517 FILLER_48_597
*13518 FILLER_48_661
*13519 FILLER_48_667
*13520 FILLER_48_731
*13521 FILLER_48_737
*13522 FILLER_48_801
*13523 FILLER_48_807
*13524 FILLER_48_871
*13525 FILLER_48_877
*13526 FILLER_48_941
*13527 FILLER_48_947
*13528 FILLER_49_1046
*13529 FILLER_49_1052
*13530 FILLER_49_1116
*13531 FILLER_49_1122
*13532 FILLER_49_1186
*13533 FILLER_49_1192
*13534 FILLER_49_1256
*13535 FILLER_49_1262
*13536 FILLER_49_1326
*13537 FILLER_49_1332
*13538 FILLER_49_136
*13539 FILLER_49_1396
*13540 FILLER_49_1402
*13541 FILLER_49_142
*13542 FILLER_49_1466
*13543 FILLER_49_1472
*13544 FILLER_49_1536
*13545 FILLER_49_1542
*13546 FILLER_49_1606
*13547 FILLER_49_1612
*13548 FILLER_49_1676
*13549 FILLER_49_1682
*13550 FILLER_49_1746
*13551 FILLER_49_1752
*13552 FILLER_49_1816
*13553 FILLER_49_1822
*13554 FILLER_49_1886
*13555 FILLER_49_1892
*13556 FILLER_49_1924
*13557 FILLER_49_1932
*13558 FILLER_49_1936
*13559 FILLER_49_2
*13560 FILLER_49_206
*13561 FILLER_49_212
*13562 FILLER_49_276
*13563 FILLER_49_282
*13564 FILLER_49_346
*13565 FILLER_49_352
*13566 FILLER_49_416
*13567 FILLER_49_422
*13568 FILLER_49_486
*13569 FILLER_49_492
*13570 FILLER_49_556
*13571 FILLER_49_562
*13572 FILLER_49_626
*13573 FILLER_49_632
*13574 FILLER_49_66
*13575 FILLER_49_696
*13576 FILLER_49_702
*13577 FILLER_49_72
*13578 FILLER_49_766
*13579 FILLER_49_772
*13580 FILLER_49_836
*13581 FILLER_49_842
*13582 FILLER_49_906
*13583 FILLER_49_912
*13584 FILLER_49_976
*13585 FILLER_49_982
*13586 FILLER_4_101
*13587 FILLER_4_1011
*13588 FILLER_4_1017
*13589 FILLER_4_107
*13590 FILLER_4_1081
*13591 FILLER_4_1087
*13592 FILLER_4_1151
*13593 FILLER_4_1157
*13594 FILLER_4_1221
*13595 FILLER_4_1227
*13596 FILLER_4_1291
*13597 FILLER_4_1297
*13598 FILLER_4_1361
*13599 FILLER_4_1367
*13600 FILLER_4_1431
*13601 FILLER_4_1437
*13602 FILLER_4_1501
*13603 FILLER_4_1507
*13604 FILLER_4_1571
*13605 FILLER_4_1577
*13606 FILLER_4_1641
*13607 FILLER_4_1647
*13608 FILLER_4_171
*13609 FILLER_4_1711
*13610 FILLER_4_1717
*13611 FILLER_4_177
*13612 FILLER_4_1781
*13613 FILLER_4_1787
*13614 FILLER_4_1851
*13615 FILLER_4_1857
*13616 FILLER_4_1921
*13617 FILLER_4_1927
*13618 FILLER_4_1935
*13619 FILLER_4_1937
*13620 FILLER_4_2
*13621 FILLER_4_241
*13622 FILLER_4_247
*13623 FILLER_4_311
*13624 FILLER_4_317
*13625 FILLER_4_34
*13626 FILLER_4_37
*13627 FILLER_4_381
*13628 FILLER_4_387
*13629 FILLER_4_451
*13630 FILLER_4_457
*13631 FILLER_4_521
*13632 FILLER_4_527
*13633 FILLER_4_591
*13634 FILLER_4_597
*13635 FILLER_4_661
*13636 FILLER_4_667
*13637 FILLER_4_731
*13638 FILLER_4_737
*13639 FILLER_4_801
*13640 FILLER_4_807
*13641 FILLER_4_871
*13642 FILLER_4_877
*13643 FILLER_4_941
*13644 FILLER_4_947
*13645 FILLER_50_101
*13646 FILLER_50_1011
*13647 FILLER_50_1017
*13648 FILLER_50_107
*13649 FILLER_50_1081
*13650 FILLER_50_1087
*13651 FILLER_50_1151
*13652 FILLER_50_1157
*13653 FILLER_50_1221
*13654 FILLER_50_1227
*13655 FILLER_50_1291
*13656 FILLER_50_1297
*13657 FILLER_50_1361
*13658 FILLER_50_1367
*13659 FILLER_50_1431
*13660 FILLER_50_1437
*13661 FILLER_50_1501
*13662 FILLER_50_1507
*13663 FILLER_50_1571
*13664 FILLER_50_1577
*13665 FILLER_50_1641
*13666 FILLER_50_1647
*13667 FILLER_50_171
*13668 FILLER_50_1711
*13669 FILLER_50_1717
*13670 FILLER_50_177
*13671 FILLER_50_1781
*13672 FILLER_50_1787
*13673 FILLER_50_1851
*13674 FILLER_50_1857
*13675 FILLER_50_1921
*13676 FILLER_50_1927
*13677 FILLER_50_1935
*13678 FILLER_50_1937
*13679 FILLER_50_2
*13680 FILLER_50_241
*13681 FILLER_50_247
*13682 FILLER_50_311
*13683 FILLER_50_317
*13684 FILLER_50_34
*13685 FILLER_50_37
*13686 FILLER_50_381
*13687 FILLER_50_387
*13688 FILLER_50_451
*13689 FILLER_50_457
*13690 FILLER_50_521
*13691 FILLER_50_527
*13692 FILLER_50_591
*13693 FILLER_50_597
*13694 FILLER_50_661
*13695 FILLER_50_667
*13696 FILLER_50_731
*13697 FILLER_50_737
*13698 FILLER_50_801
*13699 FILLER_50_807
*13700 FILLER_50_871
*13701 FILLER_50_877
*13702 FILLER_50_941
*13703 FILLER_50_947
*13704 FILLER_51_1046
*13705 FILLER_51_1052
*13706 FILLER_51_1116
*13707 FILLER_51_1122
*13708 FILLER_51_1186
*13709 FILLER_51_1192
*13710 FILLER_51_1256
*13711 FILLER_51_1262
*13712 FILLER_51_1326
*13713 FILLER_51_1332
*13714 FILLER_51_136
*13715 FILLER_51_1396
*13716 FILLER_51_1402
*13717 FILLER_51_142
*13718 FILLER_51_1466
*13719 FILLER_51_1472
*13720 FILLER_51_1536
*13721 FILLER_51_1542
*13722 FILLER_51_1606
*13723 FILLER_51_1612
*13724 FILLER_51_1676
*13725 FILLER_51_1682
*13726 FILLER_51_1746
*13727 FILLER_51_1752
*13728 FILLER_51_1816
*13729 FILLER_51_1822
*13730 FILLER_51_1886
*13731 FILLER_51_1892
*13732 FILLER_51_1924
*13733 FILLER_51_1932
*13734 FILLER_51_1936
*13735 FILLER_51_2
*13736 FILLER_51_206
*13737 FILLER_51_212
*13738 FILLER_51_276
*13739 FILLER_51_282
*13740 FILLER_51_346
*13741 FILLER_51_352
*13742 FILLER_51_416
*13743 FILLER_51_422
*13744 FILLER_51_486
*13745 FILLER_51_492
*13746 FILLER_51_556
*13747 FILLER_51_562
*13748 FILLER_51_626
*13749 FILLER_51_632
*13750 FILLER_51_66
*13751 FILLER_51_696
*13752 FILLER_51_702
*13753 FILLER_51_72
*13754 FILLER_51_766
*13755 FILLER_51_772
*13756 FILLER_51_836
*13757 FILLER_51_842
*13758 FILLER_51_906
*13759 FILLER_51_912
*13760 FILLER_51_976
*13761 FILLER_51_982
*13762 FILLER_52_101
*13763 FILLER_52_1011
*13764 FILLER_52_1017
*13765 FILLER_52_107
*13766 FILLER_52_1081
*13767 FILLER_52_1087
*13768 FILLER_52_1151
*13769 FILLER_52_1157
*13770 FILLER_52_1221
*13771 FILLER_52_1227
*13772 FILLER_52_1291
*13773 FILLER_52_1297
*13774 FILLER_52_1361
*13775 FILLER_52_1367
*13776 FILLER_52_1431
*13777 FILLER_52_1437
*13778 FILLER_52_1501
*13779 FILLER_52_1507
*13780 FILLER_52_1571
*13781 FILLER_52_1577
*13782 FILLER_52_1641
*13783 FILLER_52_1647
*13784 FILLER_52_171
*13785 FILLER_52_1711
*13786 FILLER_52_1717
*13787 FILLER_52_177
*13788 FILLER_52_1781
*13789 FILLER_52_1787
*13790 FILLER_52_1851
*13791 FILLER_52_1857
*13792 FILLER_52_1921
*13793 FILLER_52_1927
*13794 FILLER_52_1935
*13795 FILLER_52_1937
*13796 FILLER_52_2
*13797 FILLER_52_241
*13798 FILLER_52_247
*13799 FILLER_52_311
*13800 FILLER_52_317
*13801 FILLER_52_34
*13802 FILLER_52_37
*13803 FILLER_52_381
*13804 FILLER_52_387
*13805 FILLER_52_451
*13806 FILLER_52_457
*13807 FILLER_52_521
*13808 FILLER_52_527
*13809 FILLER_52_591
*13810 FILLER_52_597
*13811 FILLER_52_661
*13812 FILLER_52_667
*13813 FILLER_52_731
*13814 FILLER_52_737
*13815 FILLER_52_801
*13816 FILLER_52_807
*13817 FILLER_52_871
*13818 FILLER_52_877
*13819 FILLER_52_941
*13820 FILLER_52_947
*13821 FILLER_53_1046
*13822 FILLER_53_1052
*13823 FILLER_53_1116
*13824 FILLER_53_1122
*13825 FILLER_53_1186
*13826 FILLER_53_1192
*13827 FILLER_53_1256
*13828 FILLER_53_1262
*13829 FILLER_53_1326
*13830 FILLER_53_1332
*13831 FILLER_53_136
*13832 FILLER_53_1396
*13833 FILLER_53_1402
*13834 FILLER_53_142
*13835 FILLER_53_1466
*13836 FILLER_53_1472
*13837 FILLER_53_1536
*13838 FILLER_53_1542
*13839 FILLER_53_1606
*13840 FILLER_53_1612
*13841 FILLER_53_1676
*13842 FILLER_53_1682
*13843 FILLER_53_1746
*13844 FILLER_53_1752
*13845 FILLER_53_1816
*13846 FILLER_53_1822
*13847 FILLER_53_1886
*13848 FILLER_53_1892
*13849 FILLER_53_1924
*13850 FILLER_53_1932
*13851 FILLER_53_1936
*13852 FILLER_53_2
*13853 FILLER_53_206
*13854 FILLER_53_212
*13855 FILLER_53_276
*13856 FILLER_53_282
*13857 FILLER_53_346
*13858 FILLER_53_352
*13859 FILLER_53_416
*13860 FILLER_53_422
*13861 FILLER_53_486
*13862 FILLER_53_492
*13863 FILLER_53_556
*13864 FILLER_53_562
*13865 FILLER_53_626
*13866 FILLER_53_632
*13867 FILLER_53_66
*13868 FILLER_53_696
*13869 FILLER_53_702
*13870 FILLER_53_72
*13871 FILLER_53_766
*13872 FILLER_53_772
*13873 FILLER_53_836
*13874 FILLER_53_842
*13875 FILLER_53_906
*13876 FILLER_53_912
*13877 FILLER_53_976
*13878 FILLER_53_982
*13879 FILLER_54_101
*13880 FILLER_54_1011
*13881 FILLER_54_1017
*13882 FILLER_54_107
*13883 FILLER_54_1081
*13884 FILLER_54_1087
*13885 FILLER_54_1151
*13886 FILLER_54_1157
*13887 FILLER_54_1221
*13888 FILLER_54_1227
*13889 FILLER_54_1291
*13890 FILLER_54_1297
*13891 FILLER_54_1361
*13892 FILLER_54_1367
*13893 FILLER_54_1431
*13894 FILLER_54_1437
*13895 FILLER_54_1501
*13896 FILLER_54_1507
*13897 FILLER_54_1571
*13898 FILLER_54_1577
*13899 FILLER_54_1641
*13900 FILLER_54_1647
*13901 FILLER_54_171
*13902 FILLER_54_1711
*13903 FILLER_54_1717
*13904 FILLER_54_177
*13905 FILLER_54_1781
*13906 FILLER_54_1787
*13907 FILLER_54_1851
*13908 FILLER_54_1857
*13909 FILLER_54_1921
*13910 FILLER_54_1927
*13911 FILLER_54_1935
*13912 FILLER_54_1937
*13913 FILLER_54_2
*13914 FILLER_54_241
*13915 FILLER_54_247
*13916 FILLER_54_311
*13917 FILLER_54_317
*13918 FILLER_54_34
*13919 FILLER_54_37
*13920 FILLER_54_381
*13921 FILLER_54_387
*13922 FILLER_54_451
*13923 FILLER_54_457
*13924 FILLER_54_521
*13925 FILLER_54_527
*13926 FILLER_54_591
*13927 FILLER_54_597
*13928 FILLER_54_661
*13929 FILLER_54_667
*13930 FILLER_54_731
*13931 FILLER_54_737
*13932 FILLER_54_801
*13933 FILLER_54_807
*13934 FILLER_54_871
*13935 FILLER_54_877
*13936 FILLER_54_941
*13937 FILLER_54_947
*13938 FILLER_55_1046
*13939 FILLER_55_1052
*13940 FILLER_55_1116
*13941 FILLER_55_1122
*13942 FILLER_55_1186
*13943 FILLER_55_1192
*13944 FILLER_55_1256
*13945 FILLER_55_1262
*13946 FILLER_55_1326
*13947 FILLER_55_1332
*13948 FILLER_55_136
*13949 FILLER_55_1396
*13950 FILLER_55_1402
*13951 FILLER_55_142
*13952 FILLER_55_1466
*13953 FILLER_55_1472
*13954 FILLER_55_1536
*13955 FILLER_55_1542
*13956 FILLER_55_1606
*13957 FILLER_55_1612
*13958 FILLER_55_1676
*13959 FILLER_55_1682
*13960 FILLER_55_1746
*13961 FILLER_55_1752
*13962 FILLER_55_1816
*13963 FILLER_55_1822
*13964 FILLER_55_1886
*13965 FILLER_55_1892
*13966 FILLER_55_1924
*13967 FILLER_55_1932
*13968 FILLER_55_1936
*13969 FILLER_55_2
*13970 FILLER_55_206
*13971 FILLER_55_212
*13972 FILLER_55_276
*13973 FILLER_55_282
*13974 FILLER_55_346
*13975 FILLER_55_352
*13976 FILLER_55_416
*13977 FILLER_55_422
*13978 FILLER_55_486
*13979 FILLER_55_492
*13980 FILLER_55_556
*13981 FILLER_55_562
*13982 FILLER_55_626
*13983 FILLER_55_632
*13984 FILLER_55_66
*13985 FILLER_55_696
*13986 FILLER_55_702
*13987 FILLER_55_72
*13988 FILLER_55_766
*13989 FILLER_55_772
*13990 FILLER_55_836
*13991 FILLER_55_842
*13992 FILLER_55_906
*13993 FILLER_55_912
*13994 FILLER_55_976
*13995 FILLER_55_982
*13996 FILLER_56_101
*13997 FILLER_56_1011
*13998 FILLER_56_1017
*13999 FILLER_56_107
*14000 FILLER_56_1081
*14001 FILLER_56_1087
*14002 FILLER_56_1151
*14003 FILLER_56_1157
*14004 FILLER_56_1221
*14005 FILLER_56_1227
*14006 FILLER_56_1291
*14007 FILLER_56_1297
*14008 FILLER_56_1361
*14009 FILLER_56_1367
*14010 FILLER_56_1431
*14011 FILLER_56_1437
*14012 FILLER_56_1501
*14013 FILLER_56_1507
*14014 FILLER_56_1571
*14015 FILLER_56_1577
*14016 FILLER_56_1641
*14017 FILLER_56_1647
*14018 FILLER_56_171
*14019 FILLER_56_1711
*14020 FILLER_56_1717
*14021 FILLER_56_177
*14022 FILLER_56_1781
*14023 FILLER_56_1787
*14024 FILLER_56_1851
*14025 FILLER_56_1857
*14026 FILLER_56_1921
*14027 FILLER_56_1927
*14028 FILLER_56_1935
*14029 FILLER_56_1937
*14030 FILLER_56_2
*14031 FILLER_56_241
*14032 FILLER_56_247
*14033 FILLER_56_311
*14034 FILLER_56_317
*14035 FILLER_56_34
*14036 FILLER_56_37
*14037 FILLER_56_381
*14038 FILLER_56_387
*14039 FILLER_56_451
*14040 FILLER_56_457
*14041 FILLER_56_521
*14042 FILLER_56_527
*14043 FILLER_56_591
*14044 FILLER_56_597
*14045 FILLER_56_661
*14046 FILLER_56_667
*14047 FILLER_56_731
*14048 FILLER_56_737
*14049 FILLER_56_801
*14050 FILLER_56_807
*14051 FILLER_56_871
*14052 FILLER_56_877
*14053 FILLER_56_941
*14054 FILLER_56_947
*14055 FILLER_57_1046
*14056 FILLER_57_1052
*14057 FILLER_57_1116
*14058 FILLER_57_1122
*14059 FILLER_57_1186
*14060 FILLER_57_1192
*14061 FILLER_57_1256
*14062 FILLER_57_1262
*14063 FILLER_57_1326
*14064 FILLER_57_1332
*14065 FILLER_57_136
*14066 FILLER_57_1396
*14067 FILLER_57_1402
*14068 FILLER_57_142
*14069 FILLER_57_1466
*14070 FILLER_57_1472
*14071 FILLER_57_1536
*14072 FILLER_57_1542
*14073 FILLER_57_1606
*14074 FILLER_57_1612
*14075 FILLER_57_1676
*14076 FILLER_57_1682
*14077 FILLER_57_1746
*14078 FILLER_57_1752
*14079 FILLER_57_1816
*14080 FILLER_57_1822
*14081 FILLER_57_1886
*14082 FILLER_57_1892
*14083 FILLER_57_1924
*14084 FILLER_57_1932
*14085 FILLER_57_1936
*14086 FILLER_57_2
*14087 FILLER_57_206
*14088 FILLER_57_212
*14089 FILLER_57_276
*14090 FILLER_57_282
*14091 FILLER_57_346
*14092 FILLER_57_352
*14093 FILLER_57_416
*14094 FILLER_57_422
*14095 FILLER_57_486
*14096 FILLER_57_492
*14097 FILLER_57_556
*14098 FILLER_57_562
*14099 FILLER_57_626
*14100 FILLER_57_632
*14101 FILLER_57_66
*14102 FILLER_57_696
*14103 FILLER_57_702
*14104 FILLER_57_72
*14105 FILLER_57_766
*14106 FILLER_57_772
*14107 FILLER_57_836
*14108 FILLER_57_842
*14109 FILLER_57_906
*14110 FILLER_57_912
*14111 FILLER_57_976
*14112 FILLER_57_982
*14113 FILLER_58_101
*14114 FILLER_58_1011
*14115 FILLER_58_1017
*14116 FILLER_58_107
*14117 FILLER_58_1081
*14118 FILLER_58_1087
*14119 FILLER_58_1151
*14120 FILLER_58_1157
*14121 FILLER_58_1221
*14122 FILLER_58_1227
*14123 FILLER_58_1291
*14124 FILLER_58_1297
*14125 FILLER_58_1361
*14126 FILLER_58_1367
*14127 FILLER_58_1431
*14128 FILLER_58_1437
*14129 FILLER_58_1501
*14130 FILLER_58_1507
*14131 FILLER_58_1571
*14132 FILLER_58_1577
*14133 FILLER_58_1641
*14134 FILLER_58_1647
*14135 FILLER_58_171
*14136 FILLER_58_1711
*14137 FILLER_58_1717
*14138 FILLER_58_177
*14139 FILLER_58_1781
*14140 FILLER_58_1787
*14141 FILLER_58_1851
*14142 FILLER_58_1857
*14143 FILLER_58_1921
*14144 FILLER_58_1927
*14145 FILLER_58_1935
*14146 FILLER_58_1937
*14147 FILLER_58_2
*14148 FILLER_58_241
*14149 FILLER_58_247
*14150 FILLER_58_311
*14151 FILLER_58_317
*14152 FILLER_58_34
*14153 FILLER_58_37
*14154 FILLER_58_381
*14155 FILLER_58_387
*14156 FILLER_58_451
*14157 FILLER_58_457
*14158 FILLER_58_521
*14159 FILLER_58_527
*14160 FILLER_58_591
*14161 FILLER_58_597
*14162 FILLER_58_661
*14163 FILLER_58_667
*14164 FILLER_58_731
*14165 FILLER_58_737
*14166 FILLER_58_801
*14167 FILLER_58_807
*14168 FILLER_58_871
*14169 FILLER_58_877
*14170 FILLER_58_941
*14171 FILLER_58_947
*14172 FILLER_59_1046
*14173 FILLER_59_1052
*14174 FILLER_59_1116
*14175 FILLER_59_1122
*14176 FILLER_59_1186
*14177 FILLER_59_1192
*14178 FILLER_59_1256
*14179 FILLER_59_1262
*14180 FILLER_59_1326
*14181 FILLER_59_1332
*14182 FILLER_59_136
*14183 FILLER_59_1396
*14184 FILLER_59_1402
*14185 FILLER_59_142
*14186 FILLER_59_1466
*14187 FILLER_59_1472
*14188 FILLER_59_1536
*14189 FILLER_59_1542
*14190 FILLER_59_1606
*14191 FILLER_59_1612
*14192 FILLER_59_1676
*14193 FILLER_59_1682
*14194 FILLER_59_1746
*14195 FILLER_59_1752
*14196 FILLER_59_1816
*14197 FILLER_59_1822
*14198 FILLER_59_1886
*14199 FILLER_59_1892
*14200 FILLER_59_1924
*14201 FILLER_59_1932
*14202 FILLER_59_1936
*14203 FILLER_59_2
*14204 FILLER_59_206
*14205 FILLER_59_212
*14206 FILLER_59_276
*14207 FILLER_59_282
*14208 FILLER_59_346
*14209 FILLER_59_352
*14210 FILLER_59_416
*14211 FILLER_59_422
*14212 FILLER_59_486
*14213 FILLER_59_492
*14214 FILLER_59_556
*14215 FILLER_59_562
*14216 FILLER_59_626
*14217 FILLER_59_632
*14218 FILLER_59_66
*14219 FILLER_59_696
*14220 FILLER_59_702
*14221 FILLER_59_72
*14222 FILLER_59_766
*14223 FILLER_59_772
*14224 FILLER_59_836
*14225 FILLER_59_842
*14226 FILLER_59_906
*14227 FILLER_59_912
*14228 FILLER_59_976
*14229 FILLER_59_982
*14230 FILLER_5_1046
*14231 FILLER_5_1052
*14232 FILLER_5_1116
*14233 FILLER_5_1122
*14234 FILLER_5_1186
*14235 FILLER_5_1192
*14236 FILLER_5_1256
*14237 FILLER_5_1262
*14238 FILLER_5_1326
*14239 FILLER_5_1332
*14240 FILLER_5_136
*14241 FILLER_5_1396
*14242 FILLER_5_1402
*14243 FILLER_5_142
*14244 FILLER_5_1466
*14245 FILLER_5_1472
*14246 FILLER_5_1536
*14247 FILLER_5_1542
*14248 FILLER_5_1606
*14249 FILLER_5_1612
*14250 FILLER_5_1676
*14251 FILLER_5_1682
*14252 FILLER_5_1746
*14253 FILLER_5_1752
*14254 FILLER_5_1816
*14255 FILLER_5_1822
*14256 FILLER_5_1886
*14257 FILLER_5_1892
*14258 FILLER_5_1924
*14259 FILLER_5_1932
*14260 FILLER_5_1936
*14261 FILLER_5_2
*14262 FILLER_5_206
*14263 FILLER_5_212
*14264 FILLER_5_276
*14265 FILLER_5_282
*14266 FILLER_5_346
*14267 FILLER_5_352
*14268 FILLER_5_416
*14269 FILLER_5_422
*14270 FILLER_5_486
*14271 FILLER_5_492
*14272 FILLER_5_556
*14273 FILLER_5_562
*14274 FILLER_5_626
*14275 FILLER_5_632
*14276 FILLER_5_66
*14277 FILLER_5_696
*14278 FILLER_5_702
*14279 FILLER_5_72
*14280 FILLER_5_766
*14281 FILLER_5_772
*14282 FILLER_5_836
*14283 FILLER_5_842
*14284 FILLER_5_906
*14285 FILLER_5_912
*14286 FILLER_5_976
*14287 FILLER_5_982
*14288 FILLER_60_101
*14289 FILLER_60_1011
*14290 FILLER_60_1017
*14291 FILLER_60_107
*14292 FILLER_60_1081
*14293 FILLER_60_1087
*14294 FILLER_60_1151
*14295 FILLER_60_1157
*14296 FILLER_60_1221
*14297 FILLER_60_1227
*14298 FILLER_60_1291
*14299 FILLER_60_1297
*14300 FILLER_60_1361
*14301 FILLER_60_1367
*14302 FILLER_60_1431
*14303 FILLER_60_1437
*14304 FILLER_60_1501
*14305 FILLER_60_1507
*14306 FILLER_60_1571
*14307 FILLER_60_1577
*14308 FILLER_60_1641
*14309 FILLER_60_1647
*14310 FILLER_60_171
*14311 FILLER_60_1711
*14312 FILLER_60_1717
*14313 FILLER_60_177
*14314 FILLER_60_1781
*14315 FILLER_60_1787
*14316 FILLER_60_1851
*14317 FILLER_60_1857
*14318 FILLER_60_1921
*14319 FILLER_60_1927
*14320 FILLER_60_1935
*14321 FILLER_60_1937
*14322 FILLER_60_2
*14323 FILLER_60_241
*14324 FILLER_60_247
*14325 FILLER_60_311
*14326 FILLER_60_317
*14327 FILLER_60_34
*14328 FILLER_60_37
*14329 FILLER_60_381
*14330 FILLER_60_387
*14331 FILLER_60_451
*14332 FILLER_60_457
*14333 FILLER_60_521
*14334 FILLER_60_527
*14335 FILLER_60_591
*14336 FILLER_60_597
*14337 FILLER_60_661
*14338 FILLER_60_667
*14339 FILLER_60_731
*14340 FILLER_60_737
*14341 FILLER_60_801
*14342 FILLER_60_807
*14343 FILLER_60_871
*14344 FILLER_60_877
*14345 FILLER_60_941
*14346 FILLER_60_947
*14347 FILLER_61_1046
*14348 FILLER_61_1052
*14349 FILLER_61_1116
*14350 FILLER_61_1122
*14351 FILLER_61_1186
*14352 FILLER_61_1192
*14353 FILLER_61_1256
*14354 FILLER_61_1262
*14355 FILLER_61_1326
*14356 FILLER_61_1332
*14357 FILLER_61_136
*14358 FILLER_61_1396
*14359 FILLER_61_1402
*14360 FILLER_61_142
*14361 FILLER_61_1466
*14362 FILLER_61_1472
*14363 FILLER_61_1536
*14364 FILLER_61_1542
*14365 FILLER_61_1606
*14366 FILLER_61_1612
*14367 FILLER_61_1676
*14368 FILLER_61_1682
*14369 FILLER_61_1746
*14370 FILLER_61_1752
*14371 FILLER_61_1816
*14372 FILLER_61_1822
*14373 FILLER_61_1886
*14374 FILLER_61_1892
*14375 FILLER_61_1924
*14376 FILLER_61_1932
*14377 FILLER_61_1936
*14378 FILLER_61_2
*14379 FILLER_61_206
*14380 FILLER_61_212
*14381 FILLER_61_276
*14382 FILLER_61_282
*14383 FILLER_61_346
*14384 FILLER_61_352
*14385 FILLER_61_416
*14386 FILLER_61_422
*14387 FILLER_61_486
*14388 FILLER_61_492
*14389 FILLER_61_556
*14390 FILLER_61_562
*14391 FILLER_61_626
*14392 FILLER_61_632
*14393 FILLER_61_66
*14394 FILLER_61_696
*14395 FILLER_61_702
*14396 FILLER_61_72
*14397 FILLER_61_766
*14398 FILLER_61_772
*14399 FILLER_61_836
*14400 FILLER_61_842
*14401 FILLER_61_906
*14402 FILLER_61_912
*14403 FILLER_61_976
*14404 FILLER_61_982
*14405 FILLER_62_101
*14406 FILLER_62_1011
*14407 FILLER_62_1017
*14408 FILLER_62_107
*14409 FILLER_62_1081
*14410 FILLER_62_1087
*14411 FILLER_62_1151
*14412 FILLER_62_1157
*14413 FILLER_62_1221
*14414 FILLER_62_1227
*14415 FILLER_62_1291
*14416 FILLER_62_1297
*14417 FILLER_62_1361
*14418 FILLER_62_1367
*14419 FILLER_62_1431
*14420 FILLER_62_1437
*14421 FILLER_62_1501
*14422 FILLER_62_1507
*14423 FILLER_62_1571
*14424 FILLER_62_1577
*14425 FILLER_62_1641
*14426 FILLER_62_1647
*14427 FILLER_62_171
*14428 FILLER_62_1711
*14429 FILLER_62_1717
*14430 FILLER_62_177
*14431 FILLER_62_1781
*14432 FILLER_62_1787
*14433 FILLER_62_1851
*14434 FILLER_62_1857
*14435 FILLER_62_1921
*14436 FILLER_62_1927
*14437 FILLER_62_1935
*14438 FILLER_62_1937
*14439 FILLER_62_2
*14440 FILLER_62_241
*14441 FILLER_62_247
*14442 FILLER_62_311
*14443 FILLER_62_317
*14444 FILLER_62_34
*14445 FILLER_62_37
*14446 FILLER_62_381
*14447 FILLER_62_387
*14448 FILLER_62_451
*14449 FILLER_62_457
*14450 FILLER_62_521
*14451 FILLER_62_527
*14452 FILLER_62_591
*14453 FILLER_62_597
*14454 FILLER_62_661
*14455 FILLER_62_667
*14456 FILLER_62_731
*14457 FILLER_62_737
*14458 FILLER_62_801
*14459 FILLER_62_807
*14460 FILLER_62_871
*14461 FILLER_62_877
*14462 FILLER_62_941
*14463 FILLER_62_947
*14464 FILLER_63_1046
*14465 FILLER_63_1052
*14466 FILLER_63_1116
*14467 FILLER_63_1122
*14468 FILLER_63_1186
*14469 FILLER_63_1192
*14470 FILLER_63_1256
*14471 FILLER_63_1262
*14472 FILLER_63_1326
*14473 FILLER_63_1332
*14474 FILLER_63_136
*14475 FILLER_63_1396
*14476 FILLER_63_1402
*14477 FILLER_63_142
*14478 FILLER_63_1466
*14479 FILLER_63_1472
*14480 FILLER_63_1536
*14481 FILLER_63_1542
*14482 FILLER_63_1606
*14483 FILLER_63_1612
*14484 FILLER_63_1676
*14485 FILLER_63_1682
*14486 FILLER_63_1746
*14487 FILLER_63_1752
*14488 FILLER_63_1816
*14489 FILLER_63_1822
*14490 FILLER_63_1886
*14491 FILLER_63_1892
*14492 FILLER_63_1924
*14493 FILLER_63_1932
*14494 FILLER_63_1936
*14495 FILLER_63_2
*14496 FILLER_63_206
*14497 FILLER_63_212
*14498 FILLER_63_276
*14499 FILLER_63_282
*14500 FILLER_63_346
*14501 FILLER_63_352
*14502 FILLER_63_416
*14503 FILLER_63_422
*14504 FILLER_63_486
*14505 FILLER_63_492
*14506 FILLER_63_556
*14507 FILLER_63_562
*14508 FILLER_63_626
*14509 FILLER_63_632
*14510 FILLER_63_66
*14511 FILLER_63_696
*14512 FILLER_63_702
*14513 FILLER_63_72
*14514 FILLER_63_766
*14515 FILLER_63_772
*14516 FILLER_63_836
*14517 FILLER_63_842
*14518 FILLER_63_906
*14519 FILLER_63_912
*14520 FILLER_63_976
*14521 FILLER_63_982
*14522 FILLER_64_101
*14523 FILLER_64_1011
*14524 FILLER_64_1017
*14525 FILLER_64_107
*14526 FILLER_64_1081
*14527 FILLER_64_1087
*14528 FILLER_64_1151
*14529 FILLER_64_1157
*14530 FILLER_64_1221
*14531 FILLER_64_1227
*14532 FILLER_64_1291
*14533 FILLER_64_1297
*14534 FILLER_64_1361
*14535 FILLER_64_1367
*14536 FILLER_64_1431
*14537 FILLER_64_1437
*14538 FILLER_64_1501
*14539 FILLER_64_1507
*14540 FILLER_64_1571
*14541 FILLER_64_1577
*14542 FILLER_64_1641
*14543 FILLER_64_1647
*14544 FILLER_64_171
*14545 FILLER_64_1711
*14546 FILLER_64_1717
*14547 FILLER_64_177
*14548 FILLER_64_1781
*14549 FILLER_64_1787
*14550 FILLER_64_1851
*14551 FILLER_64_1857
*14552 FILLER_64_1921
*14553 FILLER_64_1927
*14554 FILLER_64_1935
*14555 FILLER_64_1937
*14556 FILLER_64_2
*14557 FILLER_64_241
*14558 FILLER_64_247
*14559 FILLER_64_311
*14560 FILLER_64_317
*14561 FILLER_64_34
*14562 FILLER_64_37
*14563 FILLER_64_381
*14564 FILLER_64_387
*14565 FILLER_64_451
*14566 FILLER_64_457
*14567 FILLER_64_521
*14568 FILLER_64_527
*14569 FILLER_64_591
*14570 FILLER_64_597
*14571 FILLER_64_661
*14572 FILLER_64_667
*14573 FILLER_64_731
*14574 FILLER_64_737
*14575 FILLER_64_801
*14576 FILLER_64_807
*14577 FILLER_64_871
*14578 FILLER_64_877
*14579 FILLER_64_941
*14580 FILLER_64_947
*14581 FILLER_65_1046
*14582 FILLER_65_1052
*14583 FILLER_65_1116
*14584 FILLER_65_1122
*14585 FILLER_65_1186
*14586 FILLER_65_1192
*14587 FILLER_65_1256
*14588 FILLER_65_1262
*14589 FILLER_65_1326
*14590 FILLER_65_1332
*14591 FILLER_65_136
*14592 FILLER_65_1396
*14593 FILLER_65_1402
*14594 FILLER_65_142
*14595 FILLER_65_1466
*14596 FILLER_65_1472
*14597 FILLER_65_1536
*14598 FILLER_65_1542
*14599 FILLER_65_1606
*14600 FILLER_65_1612
*14601 FILLER_65_1676
*14602 FILLER_65_1682
*14603 FILLER_65_1746
*14604 FILLER_65_1752
*14605 FILLER_65_1816
*14606 FILLER_65_1822
*14607 FILLER_65_1886
*14608 FILLER_65_1892
*14609 FILLER_65_1924
*14610 FILLER_65_1932
*14611 FILLER_65_1936
*14612 FILLER_65_2
*14613 FILLER_65_206
*14614 FILLER_65_212
*14615 FILLER_65_276
*14616 FILLER_65_282
*14617 FILLER_65_346
*14618 FILLER_65_352
*14619 FILLER_65_416
*14620 FILLER_65_422
*14621 FILLER_65_486
*14622 FILLER_65_492
*14623 FILLER_65_556
*14624 FILLER_65_562
*14625 FILLER_65_626
*14626 FILLER_65_632
*14627 FILLER_65_66
*14628 FILLER_65_696
*14629 FILLER_65_702
*14630 FILLER_65_72
*14631 FILLER_65_766
*14632 FILLER_65_772
*14633 FILLER_65_836
*14634 FILLER_65_842
*14635 FILLER_65_906
*14636 FILLER_65_912
*14637 FILLER_65_976
*14638 FILLER_65_982
*14639 FILLER_66_101
*14640 FILLER_66_1011
*14641 FILLER_66_1017
*14642 FILLER_66_107
*14643 FILLER_66_1081
*14644 FILLER_66_1087
*14645 FILLER_66_1151
*14646 FILLER_66_1157
*14647 FILLER_66_1221
*14648 FILLER_66_1227
*14649 FILLER_66_1291
*14650 FILLER_66_1297
*14651 FILLER_66_1361
*14652 FILLER_66_1367
*14653 FILLER_66_1431
*14654 FILLER_66_1437
*14655 FILLER_66_1501
*14656 FILLER_66_1507
*14657 FILLER_66_1571
*14658 FILLER_66_1577
*14659 FILLER_66_1641
*14660 FILLER_66_1647
*14661 FILLER_66_171
*14662 FILLER_66_1711
*14663 FILLER_66_1717
*14664 FILLER_66_177
*14665 FILLER_66_1781
*14666 FILLER_66_1787
*14667 FILLER_66_1851
*14668 FILLER_66_1857
*14669 FILLER_66_1921
*14670 FILLER_66_1927
*14671 FILLER_66_1935
*14672 FILLER_66_1937
*14673 FILLER_66_2
*14674 FILLER_66_241
*14675 FILLER_66_247
*14676 FILLER_66_311
*14677 FILLER_66_317
*14678 FILLER_66_34
*14679 FILLER_66_37
*14680 FILLER_66_381
*14681 FILLER_66_387
*14682 FILLER_66_451
*14683 FILLER_66_457
*14684 FILLER_66_521
*14685 FILLER_66_527
*14686 FILLER_66_591
*14687 FILLER_66_597
*14688 FILLER_66_661
*14689 FILLER_66_667
*14690 FILLER_66_731
*14691 FILLER_66_737
*14692 FILLER_66_801
*14693 FILLER_66_807
*14694 FILLER_66_871
*14695 FILLER_66_877
*14696 FILLER_66_941
*14697 FILLER_66_947
*14698 FILLER_67_1046
*14699 FILLER_67_1052
*14700 FILLER_67_1116
*14701 FILLER_67_1122
*14702 FILLER_67_1186
*14703 FILLER_67_1192
*14704 FILLER_67_1256
*14705 FILLER_67_1262
*14706 FILLER_67_1326
*14707 FILLER_67_1332
*14708 FILLER_67_136
*14709 FILLER_67_1396
*14710 FILLER_67_1402
*14711 FILLER_67_142
*14712 FILLER_67_1466
*14713 FILLER_67_1472
*14714 FILLER_67_1536
*14715 FILLER_67_1542
*14716 FILLER_67_1606
*14717 FILLER_67_1612
*14718 FILLER_67_1676
*14719 FILLER_67_1682
*14720 FILLER_67_1746
*14721 FILLER_67_1752
*14722 FILLER_67_1816
*14723 FILLER_67_1822
*14724 FILLER_67_1886
*14725 FILLER_67_1892
*14726 FILLER_67_1924
*14727 FILLER_67_1932
*14728 FILLER_67_1936
*14729 FILLER_67_2
*14730 FILLER_67_206
*14731 FILLER_67_212
*14732 FILLER_67_276
*14733 FILLER_67_282
*14734 FILLER_67_346
*14735 FILLER_67_352
*14736 FILLER_67_416
*14737 FILLER_67_422
*14738 FILLER_67_486
*14739 FILLER_67_492
*14740 FILLER_67_556
*14741 FILLER_67_562
*14742 FILLER_67_626
*14743 FILLER_67_632
*14744 FILLER_67_66
*14745 FILLER_67_696
*14746 FILLER_67_702
*14747 FILLER_67_72
*14748 FILLER_67_766
*14749 FILLER_67_772
*14750 FILLER_67_836
*14751 FILLER_67_842
*14752 FILLER_67_906
*14753 FILLER_67_912
*14754 FILLER_67_976
*14755 FILLER_67_982
*14756 FILLER_68_101
*14757 FILLER_68_1011
*14758 FILLER_68_1017
*14759 FILLER_68_107
*14760 FILLER_68_1081
*14761 FILLER_68_1087
*14762 FILLER_68_1151
*14763 FILLER_68_1157
*14764 FILLER_68_1221
*14765 FILLER_68_1227
*14766 FILLER_68_1291
*14767 FILLER_68_1297
*14768 FILLER_68_1361
*14769 FILLER_68_1367
*14770 FILLER_68_1431
*14771 FILLER_68_1437
*14772 FILLER_68_1501
*14773 FILLER_68_1507
*14774 FILLER_68_1571
*14775 FILLER_68_1577
*14776 FILLER_68_1641
*14777 FILLER_68_1647
*14778 FILLER_68_171
*14779 FILLER_68_1711
*14780 FILLER_68_1717
*14781 FILLER_68_177
*14782 FILLER_68_1781
*14783 FILLER_68_1787
*14784 FILLER_68_1851
*14785 FILLER_68_1857
*14786 FILLER_68_1921
*14787 FILLER_68_1927
*14788 FILLER_68_1935
*14789 FILLER_68_1937
*14790 FILLER_68_2
*14791 FILLER_68_241
*14792 FILLER_68_247
*14793 FILLER_68_311
*14794 FILLER_68_317
*14795 FILLER_68_34
*14796 FILLER_68_37
*14797 FILLER_68_381
*14798 FILLER_68_387
*14799 FILLER_68_451
*14800 FILLER_68_457
*14801 FILLER_68_521
*14802 FILLER_68_527
*14803 FILLER_68_591
*14804 FILLER_68_597
*14805 FILLER_68_661
*14806 FILLER_68_667
*14807 FILLER_68_731
*14808 FILLER_68_737
*14809 FILLER_68_801
*14810 FILLER_68_807
*14811 FILLER_68_871
*14812 FILLER_68_877
*14813 FILLER_68_941
*14814 FILLER_68_947
*14815 FILLER_69_1046
*14816 FILLER_69_1052
*14817 FILLER_69_1116
*14818 FILLER_69_1122
*14819 FILLER_69_1186
*14820 FILLER_69_1192
*14821 FILLER_69_1256
*14822 FILLER_69_1262
*14823 FILLER_69_1326
*14824 FILLER_69_1332
*14825 FILLER_69_136
*14826 FILLER_69_1396
*14827 FILLER_69_1402
*14828 FILLER_69_142
*14829 FILLER_69_1466
*14830 FILLER_69_1472
*14831 FILLER_69_1536
*14832 FILLER_69_1542
*14833 FILLER_69_1606
*14834 FILLER_69_1612
*14835 FILLER_69_1676
*14836 FILLER_69_1682
*14837 FILLER_69_1746
*14838 FILLER_69_1752
*14839 FILLER_69_1816
*14840 FILLER_69_1822
*14841 FILLER_69_1886
*14842 FILLER_69_1892
*14843 FILLER_69_1924
*14844 FILLER_69_1932
*14845 FILLER_69_1936
*14846 FILLER_69_2
*14847 FILLER_69_206
*14848 FILLER_69_212
*14849 FILLER_69_276
*14850 FILLER_69_282
*14851 FILLER_69_346
*14852 FILLER_69_352
*14853 FILLER_69_416
*14854 FILLER_69_422
*14855 FILLER_69_486
*14856 FILLER_69_492
*14857 FILLER_69_556
*14858 FILLER_69_562
*14859 FILLER_69_626
*14860 FILLER_69_632
*14861 FILLER_69_66
*14862 FILLER_69_696
*14863 FILLER_69_702
*14864 FILLER_69_72
*14865 FILLER_69_766
*14866 FILLER_69_772
*14867 FILLER_69_836
*14868 FILLER_69_842
*14869 FILLER_69_906
*14870 FILLER_69_912
*14871 FILLER_69_976
*14872 FILLER_69_982
*14873 FILLER_6_101
*14874 FILLER_6_1011
*14875 FILLER_6_1017
*14876 FILLER_6_107
*14877 FILLER_6_1081
*14878 FILLER_6_1087
*14879 FILLER_6_1151
*14880 FILLER_6_1157
*14881 FILLER_6_1221
*14882 FILLER_6_1227
*14883 FILLER_6_1291
*14884 FILLER_6_1297
*14885 FILLER_6_1361
*14886 FILLER_6_1367
*14887 FILLER_6_1431
*14888 FILLER_6_1437
*14889 FILLER_6_1501
*14890 FILLER_6_1507
*14891 FILLER_6_1571
*14892 FILLER_6_1577
*14893 FILLER_6_1641
*14894 FILLER_6_1647
*14895 FILLER_6_171
*14896 FILLER_6_1711
*14897 FILLER_6_1717
*14898 FILLER_6_177
*14899 FILLER_6_1781
*14900 FILLER_6_1787
*14901 FILLER_6_1851
*14902 FILLER_6_1857
*14903 FILLER_6_1921
*14904 FILLER_6_1927
*14905 FILLER_6_1935
*14906 FILLER_6_1937
*14907 FILLER_6_2
*14908 FILLER_6_241
*14909 FILLER_6_247
*14910 FILLER_6_311
*14911 FILLER_6_317
*14912 FILLER_6_34
*14913 FILLER_6_37
*14914 FILLER_6_381
*14915 FILLER_6_387
*14916 FILLER_6_451
*14917 FILLER_6_457
*14918 FILLER_6_521
*14919 FILLER_6_527
*14920 FILLER_6_591
*14921 FILLER_6_597
*14922 FILLER_6_661
*14923 FILLER_6_667
*14924 FILLER_6_731
*14925 FILLER_6_737
*14926 FILLER_6_801
*14927 FILLER_6_807
*14928 FILLER_6_871
*14929 FILLER_6_877
*14930 FILLER_6_941
*14931 FILLER_6_947
*14932 FILLER_70_101
*14933 FILLER_70_1011
*14934 FILLER_70_1017
*14935 FILLER_70_107
*14936 FILLER_70_1081
*14937 FILLER_70_1087
*14938 FILLER_70_1151
*14939 FILLER_70_1157
*14940 FILLER_70_1221
*14941 FILLER_70_1227
*14942 FILLER_70_1291
*14943 FILLER_70_1297
*14944 FILLER_70_1361
*14945 FILLER_70_1367
*14946 FILLER_70_1431
*14947 FILLER_70_1437
*14948 FILLER_70_1501
*14949 FILLER_70_1507
*14950 FILLER_70_1571
*14951 FILLER_70_1577
*14952 FILLER_70_1641
*14953 FILLER_70_1647
*14954 FILLER_70_171
*14955 FILLER_70_1711
*14956 FILLER_70_1717
*14957 FILLER_70_177
*14958 FILLER_70_1781
*14959 FILLER_70_1787
*14960 FILLER_70_1851
*14961 FILLER_70_1857
*14962 FILLER_70_1921
*14963 FILLER_70_1927
*14964 FILLER_70_1935
*14965 FILLER_70_1937
*14966 FILLER_70_2
*14967 FILLER_70_241
*14968 FILLER_70_247
*14969 FILLER_70_311
*14970 FILLER_70_317
*14971 FILLER_70_34
*14972 FILLER_70_37
*14973 FILLER_70_381
*14974 FILLER_70_387
*14975 FILLER_70_451
*14976 FILLER_70_457
*14977 FILLER_70_521
*14978 FILLER_70_527
*14979 FILLER_70_591
*14980 FILLER_70_597
*14981 FILLER_70_661
*14982 FILLER_70_667
*14983 FILLER_70_731
*14984 FILLER_70_737
*14985 FILLER_70_801
*14986 FILLER_70_807
*14987 FILLER_70_871
*14988 FILLER_70_877
*14989 FILLER_70_941
*14990 FILLER_70_947
*14991 FILLER_71_1046
*14992 FILLER_71_1052
*14993 FILLER_71_1116
*14994 FILLER_71_1122
*14995 FILLER_71_1186
*14996 FILLER_71_1192
*14997 FILLER_71_1256
*14998 FILLER_71_1262
*14999 FILLER_71_1326
*15000 FILLER_71_1332
*15001 FILLER_71_136
*15002 FILLER_71_1396
*15003 FILLER_71_1402
*15004 FILLER_71_142
*15005 FILLER_71_1466
*15006 FILLER_71_1472
*15007 FILLER_71_1536
*15008 FILLER_71_1542
*15009 FILLER_71_1606
*15010 FILLER_71_1612
*15011 FILLER_71_1676
*15012 FILLER_71_1682
*15013 FILLER_71_1746
*15014 FILLER_71_1752
*15015 FILLER_71_1816
*15016 FILLER_71_1822
*15017 FILLER_71_1886
*15018 FILLER_71_1892
*15019 FILLER_71_1924
*15020 FILLER_71_1932
*15021 FILLER_71_1936
*15022 FILLER_71_2
*15023 FILLER_71_206
*15024 FILLER_71_212
*15025 FILLER_71_276
*15026 FILLER_71_282
*15027 FILLER_71_346
*15028 FILLER_71_352
*15029 FILLER_71_416
*15030 FILLER_71_422
*15031 FILLER_71_486
*15032 FILLER_71_492
*15033 FILLER_71_556
*15034 FILLER_71_562
*15035 FILLER_71_626
*15036 FILLER_71_632
*15037 FILLER_71_66
*15038 FILLER_71_696
*15039 FILLER_71_702
*15040 FILLER_71_72
*15041 FILLER_71_766
*15042 FILLER_71_772
*15043 FILLER_71_836
*15044 FILLER_71_842
*15045 FILLER_71_906
*15046 FILLER_71_912
*15047 FILLER_71_976
*15048 FILLER_71_982
*15049 FILLER_72_101
*15050 FILLER_72_1011
*15051 FILLER_72_1017
*15052 FILLER_72_107
*15053 FILLER_72_1081
*15054 FILLER_72_1087
*15055 FILLER_72_1151
*15056 FILLER_72_1157
*15057 FILLER_72_1221
*15058 FILLER_72_1227
*15059 FILLER_72_1291
*15060 FILLER_72_1297
*15061 FILLER_72_1361
*15062 FILLER_72_1367
*15063 FILLER_72_1431
*15064 FILLER_72_1437
*15065 FILLER_72_1501
*15066 FILLER_72_1507
*15067 FILLER_72_1571
*15068 FILLER_72_1577
*15069 FILLER_72_1641
*15070 FILLER_72_1647
*15071 FILLER_72_171
*15072 FILLER_72_1711
*15073 FILLER_72_1717
*15074 FILLER_72_177
*15075 FILLER_72_1781
*15076 FILLER_72_1787
*15077 FILLER_72_1851
*15078 FILLER_72_1857
*15079 FILLER_72_1921
*15080 FILLER_72_1927
*15081 FILLER_72_1935
*15082 FILLER_72_1937
*15083 FILLER_72_2
*15084 FILLER_72_241
*15085 FILLER_72_247
*15086 FILLER_72_311
*15087 FILLER_72_317
*15088 FILLER_72_34
*15089 FILLER_72_37
*15090 FILLER_72_381
*15091 FILLER_72_387
*15092 FILLER_72_451
*15093 FILLER_72_457
*15094 FILLER_72_521
*15095 FILLER_72_527
*15096 FILLER_72_591
*15097 FILLER_72_597
*15098 FILLER_72_661
*15099 FILLER_72_667
*15100 FILLER_72_731
*15101 FILLER_72_737
*15102 FILLER_72_801
*15103 FILLER_72_807
*15104 FILLER_72_871
*15105 FILLER_72_877
*15106 FILLER_72_941
*15107 FILLER_72_947
*15108 FILLER_73_1046
*15109 FILLER_73_1052
*15110 FILLER_73_1116
*15111 FILLER_73_1122
*15112 FILLER_73_1186
*15113 FILLER_73_1192
*15114 FILLER_73_1256
*15115 FILLER_73_1262
*15116 FILLER_73_1326
*15117 FILLER_73_1332
*15118 FILLER_73_136
*15119 FILLER_73_1396
*15120 FILLER_73_1402
*15121 FILLER_73_142
*15122 FILLER_73_1466
*15123 FILLER_73_1472
*15124 FILLER_73_1536
*15125 FILLER_73_1542
*15126 FILLER_73_1606
*15127 FILLER_73_1612
*15128 FILLER_73_1676
*15129 FILLER_73_1682
*15130 FILLER_73_1746
*15131 FILLER_73_1752
*15132 FILLER_73_1816
*15133 FILLER_73_1822
*15134 FILLER_73_1886
*15135 FILLER_73_1892
*15136 FILLER_73_1924
*15137 FILLER_73_1932
*15138 FILLER_73_1936
*15139 FILLER_73_2
*15140 FILLER_73_206
*15141 FILLER_73_212
*15142 FILLER_73_276
*15143 FILLER_73_282
*15144 FILLER_73_346
*15145 FILLER_73_352
*15146 FILLER_73_416
*15147 FILLER_73_422
*15148 FILLER_73_486
*15149 FILLER_73_492
*15150 FILLER_73_556
*15151 FILLER_73_562
*15152 FILLER_73_626
*15153 FILLER_73_632
*15154 FILLER_73_66
*15155 FILLER_73_696
*15156 FILLER_73_702
*15157 FILLER_73_72
*15158 FILLER_73_766
*15159 FILLER_73_772
*15160 FILLER_73_836
*15161 FILLER_73_842
*15162 FILLER_73_906
*15163 FILLER_73_912
*15164 FILLER_73_976
*15165 FILLER_73_982
*15166 FILLER_74_101
*15167 FILLER_74_1011
*15168 FILLER_74_1017
*15169 FILLER_74_107
*15170 FILLER_74_1081
*15171 FILLER_74_1087
*15172 FILLER_74_1151
*15173 FILLER_74_1157
*15174 FILLER_74_1221
*15175 FILLER_74_1227
*15176 FILLER_74_1291
*15177 FILLER_74_1297
*15178 FILLER_74_1361
*15179 FILLER_74_1367
*15180 FILLER_74_1431
*15181 FILLER_74_1437
*15182 FILLER_74_1501
*15183 FILLER_74_1507
*15184 FILLER_74_1571
*15185 FILLER_74_1577
*15186 FILLER_74_1641
*15187 FILLER_74_1647
*15188 FILLER_74_171
*15189 FILLER_74_1711
*15190 FILLER_74_1717
*15191 FILLER_74_177
*15192 FILLER_74_1781
*15193 FILLER_74_1787
*15194 FILLER_74_1851
*15195 FILLER_74_1857
*15196 FILLER_74_1921
*15197 FILLER_74_1927
*15198 FILLER_74_1935
*15199 FILLER_74_1937
*15200 FILLER_74_2
*15201 FILLER_74_241
*15202 FILLER_74_247
*15203 FILLER_74_311
*15204 FILLER_74_317
*15205 FILLER_74_34
*15206 FILLER_74_37
*15207 FILLER_74_381
*15208 FILLER_74_387
*15209 FILLER_74_451
*15210 FILLER_74_457
*15211 FILLER_74_521
*15212 FILLER_74_527
*15213 FILLER_74_591
*15214 FILLER_74_597
*15215 FILLER_74_661
*15216 FILLER_74_667
*15217 FILLER_74_731
*15218 FILLER_74_737
*15219 FILLER_74_801
*15220 FILLER_74_807
*15221 FILLER_74_871
*15222 FILLER_74_877
*15223 FILLER_74_941
*15224 FILLER_74_947
*15225 FILLER_75_1046
*15226 FILLER_75_1052
*15227 FILLER_75_1116
*15228 FILLER_75_1122
*15229 FILLER_75_1186
*15230 FILLER_75_1192
*15231 FILLER_75_1256
*15232 FILLER_75_1262
*15233 FILLER_75_1326
*15234 FILLER_75_1332
*15235 FILLER_75_136
*15236 FILLER_75_1396
*15237 FILLER_75_1402
*15238 FILLER_75_142
*15239 FILLER_75_1466
*15240 FILLER_75_1472
*15241 FILLER_75_1536
*15242 FILLER_75_1542
*15243 FILLER_75_1606
*15244 FILLER_75_1612
*15245 FILLER_75_1676
*15246 FILLER_75_1682
*15247 FILLER_75_1746
*15248 FILLER_75_1752
*15249 FILLER_75_1816
*15250 FILLER_75_1822
*15251 FILLER_75_1886
*15252 FILLER_75_1892
*15253 FILLER_75_1924
*15254 FILLER_75_1932
*15255 FILLER_75_1936
*15256 FILLER_75_2
*15257 FILLER_75_206
*15258 FILLER_75_212
*15259 FILLER_75_276
*15260 FILLER_75_282
*15261 FILLER_75_346
*15262 FILLER_75_352
*15263 FILLER_75_416
*15264 FILLER_75_422
*15265 FILLER_75_486
*15266 FILLER_75_492
*15267 FILLER_75_556
*15268 FILLER_75_562
*15269 FILLER_75_626
*15270 FILLER_75_632
*15271 FILLER_75_66
*15272 FILLER_75_696
*15273 FILLER_75_702
*15274 FILLER_75_72
*15275 FILLER_75_766
*15276 FILLER_75_772
*15277 FILLER_75_836
*15278 FILLER_75_842
*15279 FILLER_75_906
*15280 FILLER_75_912
*15281 FILLER_75_976
*15282 FILLER_75_982
*15283 FILLER_76_101
*15284 FILLER_76_1011
*15285 FILLER_76_1017
*15286 FILLER_76_107
*15287 FILLER_76_1081
*15288 FILLER_76_1087
*15289 FILLER_76_1151
*15290 FILLER_76_1157
*15291 FILLER_76_1221
*15292 FILLER_76_1227
*15293 FILLER_76_1291
*15294 FILLER_76_1297
*15295 FILLER_76_1361
*15296 FILLER_76_1367
*15297 FILLER_76_1431
*15298 FILLER_76_1437
*15299 FILLER_76_1501
*15300 FILLER_76_1507
*15301 FILLER_76_1571
*15302 FILLER_76_1577
*15303 FILLER_76_1641
*15304 FILLER_76_1647
*15305 FILLER_76_171
*15306 FILLER_76_1711
*15307 FILLER_76_1717
*15308 FILLER_76_177
*15309 FILLER_76_1781
*15310 FILLER_76_1787
*15311 FILLER_76_1851
*15312 FILLER_76_1857
*15313 FILLER_76_1921
*15314 FILLER_76_1927
*15315 FILLER_76_1935
*15316 FILLER_76_1937
*15317 FILLER_76_2
*15318 FILLER_76_241
*15319 FILLER_76_247
*15320 FILLER_76_311
*15321 FILLER_76_317
*15322 FILLER_76_34
*15323 FILLER_76_37
*15324 FILLER_76_381
*15325 FILLER_76_387
*15326 FILLER_76_451
*15327 FILLER_76_457
*15328 FILLER_76_521
*15329 FILLER_76_527
*15330 FILLER_76_591
*15331 FILLER_76_597
*15332 FILLER_76_661
*15333 FILLER_76_667
*15334 FILLER_76_731
*15335 FILLER_76_737
*15336 FILLER_76_801
*15337 FILLER_76_807
*15338 FILLER_76_871
*15339 FILLER_76_877
*15340 FILLER_76_941
*15341 FILLER_76_947
*15342 FILLER_77_1046
*15343 FILLER_77_1052
*15344 FILLER_77_1116
*15345 FILLER_77_1122
*15346 FILLER_77_1186
*15347 FILLER_77_1192
*15348 FILLER_77_1256
*15349 FILLER_77_1262
*15350 FILLER_77_1326
*15351 FILLER_77_1332
*15352 FILLER_77_136
*15353 FILLER_77_1396
*15354 FILLER_77_1402
*15355 FILLER_77_142
*15356 FILLER_77_1466
*15357 FILLER_77_1472
*15358 FILLER_77_1536
*15359 FILLER_77_1542
*15360 FILLER_77_1606
*15361 FILLER_77_1612
*15362 FILLER_77_1676
*15363 FILLER_77_1682
*15364 FILLER_77_1746
*15365 FILLER_77_1752
*15366 FILLER_77_1816
*15367 FILLER_77_1822
*15368 FILLER_77_1886
*15369 FILLER_77_1892
*15370 FILLER_77_1924
*15371 FILLER_77_1932
*15372 FILLER_77_1936
*15373 FILLER_77_2
*15374 FILLER_77_206
*15375 FILLER_77_212
*15376 FILLER_77_276
*15377 FILLER_77_282
*15378 FILLER_77_346
*15379 FILLER_77_352
*15380 FILLER_77_416
*15381 FILLER_77_422
*15382 FILLER_77_486
*15383 FILLER_77_492
*15384 FILLER_77_556
*15385 FILLER_77_562
*15386 FILLER_77_626
*15387 FILLER_77_632
*15388 FILLER_77_66
*15389 FILLER_77_696
*15390 FILLER_77_702
*15391 FILLER_77_72
*15392 FILLER_77_766
*15393 FILLER_77_772
*15394 FILLER_77_836
*15395 FILLER_77_842
*15396 FILLER_77_906
*15397 FILLER_77_912
*15398 FILLER_77_976
*15399 FILLER_77_982
*15400 FILLER_78_101
*15401 FILLER_78_1011
*15402 FILLER_78_1017
*15403 FILLER_78_107
*15404 FILLER_78_1081
*15405 FILLER_78_1087
*15406 FILLER_78_1151
*15407 FILLER_78_1157
*15408 FILLER_78_1221
*15409 FILLER_78_1227
*15410 FILLER_78_1291
*15411 FILLER_78_1297
*15412 FILLER_78_1361
*15413 FILLER_78_1367
*15414 FILLER_78_1431
*15415 FILLER_78_1437
*15416 FILLER_78_1501
*15417 FILLER_78_1507
*15418 FILLER_78_1571
*15419 FILLER_78_1577
*15420 FILLER_78_1641
*15421 FILLER_78_1647
*15422 FILLER_78_171
*15423 FILLER_78_1711
*15424 FILLER_78_1717
*15425 FILLER_78_177
*15426 FILLER_78_1781
*15427 FILLER_78_1787
*15428 FILLER_78_1851
*15429 FILLER_78_1857
*15430 FILLER_78_1921
*15431 FILLER_78_1927
*15432 FILLER_78_1935
*15433 FILLER_78_1937
*15434 FILLER_78_2
*15435 FILLER_78_241
*15436 FILLER_78_247
*15437 FILLER_78_311
*15438 FILLER_78_317
*15439 FILLER_78_34
*15440 FILLER_78_37
*15441 FILLER_78_381
*15442 FILLER_78_387
*15443 FILLER_78_451
*15444 FILLER_78_457
*15445 FILLER_78_521
*15446 FILLER_78_527
*15447 FILLER_78_591
*15448 FILLER_78_597
*15449 FILLER_78_661
*15450 FILLER_78_667
*15451 FILLER_78_731
*15452 FILLER_78_737
*15453 FILLER_78_801
*15454 FILLER_78_807
*15455 FILLER_78_871
*15456 FILLER_78_877
*15457 FILLER_78_941
*15458 FILLER_78_947
*15459 FILLER_79_1046
*15460 FILLER_79_1052
*15461 FILLER_79_1116
*15462 FILLER_79_1122
*15463 FILLER_79_1186
*15464 FILLER_79_1192
*15465 FILLER_79_1256
*15466 FILLER_79_1262
*15467 FILLER_79_1326
*15468 FILLER_79_1332
*15469 FILLER_79_136
*15470 FILLER_79_1396
*15471 FILLER_79_1402
*15472 FILLER_79_142
*15473 FILLER_79_1466
*15474 FILLER_79_1472
*15475 FILLER_79_1536
*15476 FILLER_79_1542
*15477 FILLER_79_1606
*15478 FILLER_79_1612
*15479 FILLER_79_1676
*15480 FILLER_79_1682
*15481 FILLER_79_1746
*15482 FILLER_79_1752
*15483 FILLER_79_1816
*15484 FILLER_79_1822
*15485 FILLER_79_1886
*15486 FILLER_79_1892
*15487 FILLER_79_1924
*15488 FILLER_79_1932
*15489 FILLER_79_1936
*15490 FILLER_79_2
*15491 FILLER_79_206
*15492 FILLER_79_212
*15493 FILLER_79_276
*15494 FILLER_79_282
*15495 FILLER_79_346
*15496 FILLER_79_352
*15497 FILLER_79_416
*15498 FILLER_79_422
*15499 FILLER_79_486
*15500 FILLER_79_492
*15501 FILLER_79_556
*15502 FILLER_79_562
*15503 FILLER_79_626
*15504 FILLER_79_632
*15505 FILLER_79_66
*15506 FILLER_79_696
*15507 FILLER_79_702
*15508 FILLER_79_72
*15509 FILLER_79_766
*15510 FILLER_79_772
*15511 FILLER_79_836
*15512 FILLER_79_842
*15513 FILLER_79_906
*15514 FILLER_79_912
*15515 FILLER_79_976
*15516 FILLER_79_982
*15517 FILLER_7_1046
*15518 FILLER_7_1052
*15519 FILLER_7_1116
*15520 FILLER_7_1122
*15521 FILLER_7_1186
*15522 FILLER_7_1192
*15523 FILLER_7_1256
*15524 FILLER_7_1262
*15525 FILLER_7_1326
*15526 FILLER_7_1332
*15527 FILLER_7_136
*15528 FILLER_7_1396
*15529 FILLER_7_1402
*15530 FILLER_7_142
*15531 FILLER_7_1466
*15532 FILLER_7_1472
*15533 FILLER_7_1536
*15534 FILLER_7_1542
*15535 FILLER_7_1606
*15536 FILLER_7_1612
*15537 FILLER_7_1676
*15538 FILLER_7_1682
*15539 FILLER_7_1746
*15540 FILLER_7_1752
*15541 FILLER_7_1816
*15542 FILLER_7_1822
*15543 FILLER_7_1886
*15544 FILLER_7_1892
*15545 FILLER_7_1924
*15546 FILLER_7_1932
*15547 FILLER_7_1936
*15548 FILLER_7_2
*15549 FILLER_7_206
*15550 FILLER_7_212
*15551 FILLER_7_276
*15552 FILLER_7_282
*15553 FILLER_7_346
*15554 FILLER_7_352
*15555 FILLER_7_416
*15556 FILLER_7_422
*15557 FILLER_7_486
*15558 FILLER_7_492
*15559 FILLER_7_556
*15560 FILLER_7_562
*15561 FILLER_7_626
*15562 FILLER_7_632
*15563 FILLER_7_66
*15564 FILLER_7_696
*15565 FILLER_7_702
*15566 FILLER_7_72
*15567 FILLER_7_766
*15568 FILLER_7_772
*15569 FILLER_7_836
*15570 FILLER_7_842
*15571 FILLER_7_906
*15572 FILLER_7_912
*15573 FILLER_7_976
*15574 FILLER_7_982
*15575 FILLER_80_101
*15576 FILLER_80_1011
*15577 FILLER_80_1017
*15578 FILLER_80_107
*15579 FILLER_80_1081
*15580 FILLER_80_1087
*15581 FILLER_80_1151
*15582 FILLER_80_1157
*15583 FILLER_80_1221
*15584 FILLER_80_1227
*15585 FILLER_80_1291
*15586 FILLER_80_1297
*15587 FILLER_80_1361
*15588 FILLER_80_1367
*15589 FILLER_80_1431
*15590 FILLER_80_1437
*15591 FILLER_80_1501
*15592 FILLER_80_1507
*15593 FILLER_80_1571
*15594 FILLER_80_1577
*15595 FILLER_80_1641
*15596 FILLER_80_1647
*15597 FILLER_80_171
*15598 FILLER_80_1711
*15599 FILLER_80_1717
*15600 FILLER_80_177
*15601 FILLER_80_1781
*15602 FILLER_80_1787
*15603 FILLER_80_1851
*15604 FILLER_80_1857
*15605 FILLER_80_1921
*15606 FILLER_80_1927
*15607 FILLER_80_1935
*15608 FILLER_80_1937
*15609 FILLER_80_2
*15610 FILLER_80_241
*15611 FILLER_80_247
*15612 FILLER_80_311
*15613 FILLER_80_317
*15614 FILLER_80_34
*15615 FILLER_80_37
*15616 FILLER_80_381
*15617 FILLER_80_387
*15618 FILLER_80_451
*15619 FILLER_80_457
*15620 FILLER_80_521
*15621 FILLER_80_527
*15622 FILLER_80_591
*15623 FILLER_80_597
*15624 FILLER_80_661
*15625 FILLER_80_667
*15626 FILLER_80_731
*15627 FILLER_80_737
*15628 FILLER_80_801
*15629 FILLER_80_807
*15630 FILLER_80_871
*15631 FILLER_80_877
*15632 FILLER_80_941
*15633 FILLER_80_947
*15634 FILLER_81_1046
*15635 FILLER_81_1052
*15636 FILLER_81_1116
*15637 FILLER_81_1122
*15638 FILLER_81_1186
*15639 FILLER_81_1192
*15640 FILLER_81_1256
*15641 FILLER_81_1262
*15642 FILLER_81_1326
*15643 FILLER_81_1332
*15644 FILLER_81_136
*15645 FILLER_81_1396
*15646 FILLER_81_1402
*15647 FILLER_81_142
*15648 FILLER_81_1466
*15649 FILLER_81_1472
*15650 FILLER_81_1536
*15651 FILLER_81_1542
*15652 FILLER_81_1606
*15653 FILLER_81_1612
*15654 FILLER_81_1676
*15655 FILLER_81_1682
*15656 FILLER_81_1746
*15657 FILLER_81_1752
*15658 FILLER_81_1816
*15659 FILLER_81_1822
*15660 FILLER_81_1886
*15661 FILLER_81_1892
*15662 FILLER_81_1924
*15663 FILLER_81_1932
*15664 FILLER_81_1936
*15665 FILLER_81_2
*15666 FILLER_81_206
*15667 FILLER_81_212
*15668 FILLER_81_276
*15669 FILLER_81_282
*15670 FILLER_81_346
*15671 FILLER_81_352
*15672 FILLER_81_416
*15673 FILLER_81_422
*15674 FILLER_81_486
*15675 FILLER_81_492
*15676 FILLER_81_556
*15677 FILLER_81_562
*15678 FILLER_81_626
*15679 FILLER_81_632
*15680 FILLER_81_66
*15681 FILLER_81_696
*15682 FILLER_81_702
*15683 FILLER_81_72
*15684 FILLER_81_766
*15685 FILLER_81_772
*15686 FILLER_81_836
*15687 FILLER_81_842
*15688 FILLER_81_906
*15689 FILLER_81_912
*15690 FILLER_81_976
*15691 FILLER_81_982
*15692 FILLER_82_101
*15693 FILLER_82_1011
*15694 FILLER_82_1017
*15695 FILLER_82_107
*15696 FILLER_82_1081
*15697 FILLER_82_1087
*15698 FILLER_82_1151
*15699 FILLER_82_1157
*15700 FILLER_82_1221
*15701 FILLER_82_1227
*15702 FILLER_82_1291
*15703 FILLER_82_1297
*15704 FILLER_82_1361
*15705 FILLER_82_1367
*15706 FILLER_82_1431
*15707 FILLER_82_1437
*15708 FILLER_82_1501
*15709 FILLER_82_1507
*15710 FILLER_82_1571
*15711 FILLER_82_1577
*15712 FILLER_82_1641
*15713 FILLER_82_1647
*15714 FILLER_82_171
*15715 FILLER_82_1711
*15716 FILLER_82_1717
*15717 FILLER_82_177
*15718 FILLER_82_1781
*15719 FILLER_82_1787
*15720 FILLER_82_1851
*15721 FILLER_82_1857
*15722 FILLER_82_1921
*15723 FILLER_82_1927
*15724 FILLER_82_1935
*15725 FILLER_82_1937
*15726 FILLER_82_2
*15727 FILLER_82_241
*15728 FILLER_82_247
*15729 FILLER_82_311
*15730 FILLER_82_317
*15731 FILLER_82_34
*15732 FILLER_82_37
*15733 FILLER_82_381
*15734 FILLER_82_387
*15735 FILLER_82_451
*15736 FILLER_82_457
*15737 FILLER_82_521
*15738 FILLER_82_527
*15739 FILLER_82_591
*15740 FILLER_82_597
*15741 FILLER_82_661
*15742 FILLER_82_667
*15743 FILLER_82_731
*15744 FILLER_82_737
*15745 FILLER_82_801
*15746 FILLER_82_807
*15747 FILLER_82_871
*15748 FILLER_82_877
*15749 FILLER_82_941
*15750 FILLER_82_947
*15751 FILLER_83_1046
*15752 FILLER_83_1052
*15753 FILLER_83_1116
*15754 FILLER_83_1122
*15755 FILLER_83_1186
*15756 FILLER_83_1192
*15757 FILLER_83_1256
*15758 FILLER_83_1262
*15759 FILLER_83_1326
*15760 FILLER_83_1332
*15761 FILLER_83_136
*15762 FILLER_83_1396
*15763 FILLER_83_1402
*15764 FILLER_83_142
*15765 FILLER_83_1466
*15766 FILLER_83_1472
*15767 FILLER_83_1536
*15768 FILLER_83_1542
*15769 FILLER_83_1606
*15770 FILLER_83_1612
*15771 FILLER_83_1676
*15772 FILLER_83_1682
*15773 FILLER_83_1746
*15774 FILLER_83_1752
*15775 FILLER_83_1816
*15776 FILLER_83_1822
*15777 FILLER_83_1886
*15778 FILLER_83_1892
*15779 FILLER_83_1924
*15780 FILLER_83_1932
*15781 FILLER_83_1936
*15782 FILLER_83_2
*15783 FILLER_83_206
*15784 FILLER_83_212
*15785 FILLER_83_276
*15786 FILLER_83_282
*15787 FILLER_83_346
*15788 FILLER_83_352
*15789 FILLER_83_416
*15790 FILLER_83_422
*15791 FILLER_83_486
*15792 FILLER_83_492
*15793 FILLER_83_556
*15794 FILLER_83_562
*15795 FILLER_83_626
*15796 FILLER_83_632
*15797 FILLER_83_66
*15798 FILLER_83_696
*15799 FILLER_83_702
*15800 FILLER_83_72
*15801 FILLER_83_766
*15802 FILLER_83_772
*15803 FILLER_83_836
*15804 FILLER_83_842
*15805 FILLER_83_906
*15806 FILLER_83_912
*15807 FILLER_83_976
*15808 FILLER_83_982
*15809 FILLER_84_101
*15810 FILLER_84_1011
*15811 FILLER_84_1017
*15812 FILLER_84_107
*15813 FILLER_84_1081
*15814 FILLER_84_1087
*15815 FILLER_84_1151
*15816 FILLER_84_1157
*15817 FILLER_84_1221
*15818 FILLER_84_1227
*15819 FILLER_84_1291
*15820 FILLER_84_1297
*15821 FILLER_84_1361
*15822 FILLER_84_1367
*15823 FILLER_84_1431
*15824 FILLER_84_1437
*15825 FILLER_84_1501
*15826 FILLER_84_1507
*15827 FILLER_84_1571
*15828 FILLER_84_1577
*15829 FILLER_84_1641
*15830 FILLER_84_1647
*15831 FILLER_84_171
*15832 FILLER_84_1711
*15833 FILLER_84_1717
*15834 FILLER_84_177
*15835 FILLER_84_1781
*15836 FILLER_84_1787
*15837 FILLER_84_1851
*15838 FILLER_84_1857
*15839 FILLER_84_1921
*15840 FILLER_84_1927
*15841 FILLER_84_1935
*15842 FILLER_84_1937
*15843 FILLER_84_2
*15844 FILLER_84_241
*15845 FILLER_84_247
*15846 FILLER_84_311
*15847 FILLER_84_317
*15848 FILLER_84_34
*15849 FILLER_84_37
*15850 FILLER_84_381
*15851 FILLER_84_387
*15852 FILLER_84_451
*15853 FILLER_84_457
*15854 FILLER_84_521
*15855 FILLER_84_527
*15856 FILLER_84_591
*15857 FILLER_84_597
*15858 FILLER_84_661
*15859 FILLER_84_667
*15860 FILLER_84_731
*15861 FILLER_84_737
*15862 FILLER_84_801
*15863 FILLER_84_807
*15864 FILLER_84_871
*15865 FILLER_84_877
*15866 FILLER_84_941
*15867 FILLER_84_947
*15868 FILLER_85_1046
*15869 FILLER_85_1052
*15870 FILLER_85_1116
*15871 FILLER_85_1122
*15872 FILLER_85_1186
*15873 FILLER_85_1192
*15874 FILLER_85_1256
*15875 FILLER_85_1262
*15876 FILLER_85_1326
*15877 FILLER_85_1332
*15878 FILLER_85_136
*15879 FILLER_85_1396
*15880 FILLER_85_1402
*15881 FILLER_85_142
*15882 FILLER_85_1466
*15883 FILLER_85_1472
*15884 FILLER_85_1536
*15885 FILLER_85_1542
*15886 FILLER_85_1606
*15887 FILLER_85_1612
*15888 FILLER_85_1676
*15889 FILLER_85_1682
*15890 FILLER_85_1746
*15891 FILLER_85_1752
*15892 FILLER_85_1816
*15893 FILLER_85_1822
*15894 FILLER_85_1886
*15895 FILLER_85_1892
*15896 FILLER_85_1924
*15897 FILLER_85_1932
*15898 FILLER_85_1936
*15899 FILLER_85_2
*15900 FILLER_85_206
*15901 FILLER_85_212
*15902 FILLER_85_276
*15903 FILLER_85_282
*15904 FILLER_85_346
*15905 FILLER_85_352
*15906 FILLER_85_416
*15907 FILLER_85_422
*15908 FILLER_85_486
*15909 FILLER_85_492
*15910 FILLER_85_556
*15911 FILLER_85_562
*15912 FILLER_85_626
*15913 FILLER_85_632
*15914 FILLER_85_66
*15915 FILLER_85_696
*15916 FILLER_85_702
*15917 FILLER_85_72
*15918 FILLER_85_766
*15919 FILLER_85_772
*15920 FILLER_85_836
*15921 FILLER_85_842
*15922 FILLER_85_906
*15923 FILLER_85_912
*15924 FILLER_85_976
*15925 FILLER_85_982
*15926 FILLER_86_101
*15927 FILLER_86_1011
*15928 FILLER_86_1017
*15929 FILLER_86_107
*15930 FILLER_86_1081
*15931 FILLER_86_1087
*15932 FILLER_86_1151
*15933 FILLER_86_1157
*15934 FILLER_86_1221
*15935 FILLER_86_1227
*15936 FILLER_86_1291
*15937 FILLER_86_1297
*15938 FILLER_86_1361
*15939 FILLER_86_1367
*15940 FILLER_86_1431
*15941 FILLER_86_1437
*15942 FILLER_86_1501
*15943 FILLER_86_1507
*15944 FILLER_86_1571
*15945 FILLER_86_1577
*15946 FILLER_86_1641
*15947 FILLER_86_1647
*15948 FILLER_86_171
*15949 FILLER_86_1711
*15950 FILLER_86_1717
*15951 FILLER_86_177
*15952 FILLER_86_1781
*15953 FILLER_86_1787
*15954 FILLER_86_1851
*15955 FILLER_86_1857
*15956 FILLER_86_1921
*15957 FILLER_86_1927
*15958 FILLER_86_1935
*15959 FILLER_86_1937
*15960 FILLER_86_2
*15961 FILLER_86_241
*15962 FILLER_86_247
*15963 FILLER_86_311
*15964 FILLER_86_317
*15965 FILLER_86_34
*15966 FILLER_86_37
*15967 FILLER_86_381
*15968 FILLER_86_387
*15969 FILLER_86_451
*15970 FILLER_86_457
*15971 FILLER_86_521
*15972 FILLER_86_527
*15973 FILLER_86_591
*15974 FILLER_86_597
*15975 FILLER_86_661
*15976 FILLER_86_667
*15977 FILLER_86_731
*15978 FILLER_86_737
*15979 FILLER_86_801
*15980 FILLER_86_807
*15981 FILLER_86_871
*15982 FILLER_86_877
*15983 FILLER_86_941
*15984 FILLER_86_947
*15985 FILLER_87_1046
*15986 FILLER_87_1052
*15987 FILLER_87_1116
*15988 FILLER_87_1122
*15989 FILLER_87_1186
*15990 FILLER_87_1192
*15991 FILLER_87_1256
*15992 FILLER_87_1262
*15993 FILLER_87_1326
*15994 FILLER_87_1332
*15995 FILLER_87_136
*15996 FILLER_87_1396
*15997 FILLER_87_1402
*15998 FILLER_87_142
*15999 FILLER_87_1466
*16000 FILLER_87_1472
*16001 FILLER_87_1536
*16002 FILLER_87_1542
*16003 FILLER_87_1606
*16004 FILLER_87_1612
*16005 FILLER_87_1676
*16006 FILLER_87_1682
*16007 FILLER_87_1746
*16008 FILLER_87_1752
*16009 FILLER_87_1816
*16010 FILLER_87_1822
*16011 FILLER_87_1886
*16012 FILLER_87_1892
*16013 FILLER_87_1924
*16014 FILLER_87_1932
*16015 FILLER_87_1936
*16016 FILLER_87_2
*16017 FILLER_87_206
*16018 FILLER_87_212
*16019 FILLER_87_276
*16020 FILLER_87_282
*16021 FILLER_87_346
*16022 FILLER_87_352
*16023 FILLER_87_416
*16024 FILLER_87_422
*16025 FILLER_87_486
*16026 FILLER_87_492
*16027 FILLER_87_556
*16028 FILLER_87_562
*16029 FILLER_87_626
*16030 FILLER_87_632
*16031 FILLER_87_66
*16032 FILLER_87_696
*16033 FILLER_87_702
*16034 FILLER_87_72
*16035 FILLER_87_766
*16036 FILLER_87_772
*16037 FILLER_87_836
*16038 FILLER_87_842
*16039 FILLER_87_906
*16040 FILLER_87_912
*16041 FILLER_87_976
*16042 FILLER_87_982
*16043 FILLER_88_101
*16044 FILLER_88_1011
*16045 FILLER_88_1017
*16046 FILLER_88_107
*16047 FILLER_88_1081
*16048 FILLER_88_1087
*16049 FILLER_88_1151
*16050 FILLER_88_1157
*16051 FILLER_88_1221
*16052 FILLER_88_1227
*16053 FILLER_88_1291
*16054 FILLER_88_1297
*16055 FILLER_88_1361
*16056 FILLER_88_1367
*16057 FILLER_88_1431
*16058 FILLER_88_1437
*16059 FILLER_88_1501
*16060 FILLER_88_1507
*16061 FILLER_88_1571
*16062 FILLER_88_1577
*16063 FILLER_88_1641
*16064 FILLER_88_1647
*16065 FILLER_88_171
*16066 FILLER_88_1711
*16067 FILLER_88_1717
*16068 FILLER_88_177
*16069 FILLER_88_1781
*16070 FILLER_88_1787
*16071 FILLER_88_1851
*16072 FILLER_88_1857
*16073 FILLER_88_1921
*16074 FILLER_88_1927
*16075 FILLER_88_1935
*16076 FILLER_88_1937
*16077 FILLER_88_2
*16078 FILLER_88_241
*16079 FILLER_88_247
*16080 FILLER_88_311
*16081 FILLER_88_317
*16082 FILLER_88_34
*16083 FILLER_88_37
*16084 FILLER_88_381
*16085 FILLER_88_387
*16086 FILLER_88_451
*16087 FILLER_88_457
*16088 FILLER_88_521
*16089 FILLER_88_527
*16090 FILLER_88_591
*16091 FILLER_88_597
*16092 FILLER_88_661
*16093 FILLER_88_667
*16094 FILLER_88_731
*16095 FILLER_88_737
*16096 FILLER_88_801
*16097 FILLER_88_807
*16098 FILLER_88_871
*16099 FILLER_88_877
*16100 FILLER_88_941
*16101 FILLER_88_947
*16102 FILLER_89_1046
*16103 FILLER_89_1052
*16104 FILLER_89_1116
*16105 FILLER_89_1122
*16106 FILLER_89_1186
*16107 FILLER_89_1192
*16108 FILLER_89_1256
*16109 FILLER_89_1262
*16110 FILLER_89_1326
*16111 FILLER_89_1332
*16112 FILLER_89_136
*16113 FILLER_89_1396
*16114 FILLER_89_1402
*16115 FILLER_89_142
*16116 FILLER_89_1466
*16117 FILLER_89_1472
*16118 FILLER_89_1536
*16119 FILLER_89_1542
*16120 FILLER_89_1606
*16121 FILLER_89_1612
*16122 FILLER_89_1676
*16123 FILLER_89_1682
*16124 FILLER_89_1746
*16125 FILLER_89_1752
*16126 FILLER_89_1816
*16127 FILLER_89_1822
*16128 FILLER_89_1886
*16129 FILLER_89_1892
*16130 FILLER_89_1924
*16131 FILLER_89_1932
*16132 FILLER_89_1936
*16133 FILLER_89_2
*16134 FILLER_89_206
*16135 FILLER_89_212
*16136 FILLER_89_276
*16137 FILLER_89_282
*16138 FILLER_89_346
*16139 FILLER_89_352
*16140 FILLER_89_416
*16141 FILLER_89_422
*16142 FILLER_89_486
*16143 FILLER_89_492
*16144 FILLER_89_556
*16145 FILLER_89_562
*16146 FILLER_89_626
*16147 FILLER_89_632
*16148 FILLER_89_66
*16149 FILLER_89_696
*16150 FILLER_89_702
*16151 FILLER_89_72
*16152 FILLER_89_766
*16153 FILLER_89_772
*16154 FILLER_89_836
*16155 FILLER_89_842
*16156 FILLER_89_906
*16157 FILLER_89_912
*16158 FILLER_89_976
*16159 FILLER_89_982
*16160 FILLER_8_101
*16161 FILLER_8_1011
*16162 FILLER_8_1017
*16163 FILLER_8_107
*16164 FILLER_8_1081
*16165 FILLER_8_1087
*16166 FILLER_8_1151
*16167 FILLER_8_1157
*16168 FILLER_8_1221
*16169 FILLER_8_1227
*16170 FILLER_8_1291
*16171 FILLER_8_1297
*16172 FILLER_8_1361
*16173 FILLER_8_1367
*16174 FILLER_8_1431
*16175 FILLER_8_1437
*16176 FILLER_8_1501
*16177 FILLER_8_1507
*16178 FILLER_8_1571
*16179 FILLER_8_1577
*16180 FILLER_8_1641
*16181 FILLER_8_1647
*16182 FILLER_8_171
*16183 FILLER_8_1711
*16184 FILLER_8_1717
*16185 FILLER_8_177
*16186 FILLER_8_1781
*16187 FILLER_8_1787
*16188 FILLER_8_1851
*16189 FILLER_8_1857
*16190 FILLER_8_1921
*16191 FILLER_8_1927
*16192 FILLER_8_1935
*16193 FILLER_8_1937
*16194 FILLER_8_2
*16195 FILLER_8_241
*16196 FILLER_8_247
*16197 FILLER_8_311
*16198 FILLER_8_317
*16199 FILLER_8_34
*16200 FILLER_8_37
*16201 FILLER_8_381
*16202 FILLER_8_387
*16203 FILLER_8_451
*16204 FILLER_8_457
*16205 FILLER_8_521
*16206 FILLER_8_527
*16207 FILLER_8_591
*16208 FILLER_8_597
*16209 FILLER_8_661
*16210 FILLER_8_667
*16211 FILLER_8_731
*16212 FILLER_8_737
*16213 FILLER_8_801
*16214 FILLER_8_807
*16215 FILLER_8_871
*16216 FILLER_8_877
*16217 FILLER_8_941
*16218 FILLER_8_947
*16219 FILLER_90_101
*16220 FILLER_90_1011
*16221 FILLER_90_1017
*16222 FILLER_90_107
*16223 FILLER_90_1081
*16224 FILLER_90_1087
*16225 FILLER_90_1151
*16226 FILLER_90_1157
*16227 FILLER_90_1221
*16228 FILLER_90_1227
*16229 FILLER_90_1291
*16230 FILLER_90_1297
*16231 FILLER_90_1361
*16232 FILLER_90_1367
*16233 FILLER_90_1431
*16234 FILLER_90_1437
*16235 FILLER_90_1501
*16236 FILLER_90_1507
*16237 FILLER_90_1571
*16238 FILLER_90_1577
*16239 FILLER_90_1641
*16240 FILLER_90_1647
*16241 FILLER_90_171
*16242 FILLER_90_1711
*16243 FILLER_90_1717
*16244 FILLER_90_177
*16245 FILLER_90_1781
*16246 FILLER_90_1787
*16247 FILLER_90_1851
*16248 FILLER_90_1857
*16249 FILLER_90_1921
*16250 FILLER_90_1927
*16251 FILLER_90_1935
*16252 FILLER_90_1937
*16253 FILLER_90_2
*16254 FILLER_90_241
*16255 FILLER_90_247
*16256 FILLER_90_311
*16257 FILLER_90_317
*16258 FILLER_90_34
*16259 FILLER_90_37
*16260 FILLER_90_381
*16261 FILLER_90_387
*16262 FILLER_90_451
*16263 FILLER_90_457
*16264 FILLER_90_521
*16265 FILLER_90_527
*16266 FILLER_90_591
*16267 FILLER_90_597
*16268 FILLER_90_661
*16269 FILLER_90_667
*16270 FILLER_90_731
*16271 FILLER_90_737
*16272 FILLER_90_801
*16273 FILLER_90_807
*16274 FILLER_90_871
*16275 FILLER_90_877
*16276 FILLER_90_941
*16277 FILLER_90_947
*16278 FILLER_91_1046
*16279 FILLER_91_1052
*16280 FILLER_91_1116
*16281 FILLER_91_1122
*16282 FILLER_91_1186
*16283 FILLER_91_1192
*16284 FILLER_91_1256
*16285 FILLER_91_1262
*16286 FILLER_91_1326
*16287 FILLER_91_1332
*16288 FILLER_91_136
*16289 FILLER_91_1396
*16290 FILLER_91_1402
*16291 FILLER_91_142
*16292 FILLER_91_1466
*16293 FILLER_91_1472
*16294 FILLER_91_1536
*16295 FILLER_91_1542
*16296 FILLER_91_1606
*16297 FILLER_91_1612
*16298 FILLER_91_1676
*16299 FILLER_91_1682
*16300 FILLER_91_1746
*16301 FILLER_91_1752
*16302 FILLER_91_1816
*16303 FILLER_91_1822
*16304 FILLER_91_1886
*16305 FILLER_91_1892
*16306 FILLER_91_1924
*16307 FILLER_91_1932
*16308 FILLER_91_1936
*16309 FILLER_91_2
*16310 FILLER_91_206
*16311 FILLER_91_212
*16312 FILLER_91_276
*16313 FILLER_91_282
*16314 FILLER_91_346
*16315 FILLER_91_352
*16316 FILLER_91_416
*16317 FILLER_91_422
*16318 FILLER_91_486
*16319 FILLER_91_492
*16320 FILLER_91_556
*16321 FILLER_91_562
*16322 FILLER_91_626
*16323 FILLER_91_632
*16324 FILLER_91_66
*16325 FILLER_91_696
*16326 FILLER_91_702
*16327 FILLER_91_72
*16328 FILLER_91_766
*16329 FILLER_91_772
*16330 FILLER_91_836
*16331 FILLER_91_842
*16332 FILLER_91_906
*16333 FILLER_91_912
*16334 FILLER_91_976
*16335 FILLER_91_982
*16336 FILLER_92_101
*16337 FILLER_92_1011
*16338 FILLER_92_1017
*16339 FILLER_92_107
*16340 FILLER_92_1081
*16341 FILLER_92_1087
*16342 FILLER_92_1151
*16343 FILLER_92_1157
*16344 FILLER_92_1221
*16345 FILLER_92_1227
*16346 FILLER_92_1291
*16347 FILLER_92_1297
*16348 FILLER_92_1361
*16349 FILLER_92_1367
*16350 FILLER_92_1431
*16351 FILLER_92_1437
*16352 FILLER_92_1501
*16353 FILLER_92_1507
*16354 FILLER_92_1571
*16355 FILLER_92_1577
*16356 FILLER_92_1641
*16357 FILLER_92_1647
*16358 FILLER_92_171
*16359 FILLER_92_1711
*16360 FILLER_92_1717
*16361 FILLER_92_177
*16362 FILLER_92_1781
*16363 FILLER_92_1787
*16364 FILLER_92_1851
*16365 FILLER_92_1857
*16366 FILLER_92_1921
*16367 FILLER_92_1927
*16368 FILLER_92_1935
*16369 FILLER_92_1937
*16370 FILLER_92_2
*16371 FILLER_92_241
*16372 FILLER_92_247
*16373 FILLER_92_311
*16374 FILLER_92_317
*16375 FILLER_92_34
*16376 FILLER_92_37
*16377 FILLER_92_381
*16378 FILLER_92_387
*16379 FILLER_92_451
*16380 FILLER_92_457
*16381 FILLER_92_521
*16382 FILLER_92_527
*16383 FILLER_92_591
*16384 FILLER_92_597
*16385 FILLER_92_661
*16386 FILLER_92_667
*16387 FILLER_92_731
*16388 FILLER_92_737
*16389 FILLER_92_801
*16390 FILLER_92_807
*16391 FILLER_92_871
*16392 FILLER_92_877
*16393 FILLER_92_941
*16394 FILLER_92_947
*16395 FILLER_93_1046
*16396 FILLER_93_1052
*16397 FILLER_93_1116
*16398 FILLER_93_1122
*16399 FILLER_93_1186
*16400 FILLER_93_1192
*16401 FILLER_93_1256
*16402 FILLER_93_1262
*16403 FILLER_93_1326
*16404 FILLER_93_1332
*16405 FILLER_93_136
*16406 FILLER_93_1396
*16407 FILLER_93_1402
*16408 FILLER_93_142
*16409 FILLER_93_1466
*16410 FILLER_93_1472
*16411 FILLER_93_1536
*16412 FILLER_93_1542
*16413 FILLER_93_1606
*16414 FILLER_93_1612
*16415 FILLER_93_1676
*16416 FILLER_93_1682
*16417 FILLER_93_1746
*16418 FILLER_93_1752
*16419 FILLER_93_1816
*16420 FILLER_93_1822
*16421 FILLER_93_1886
*16422 FILLER_93_1892
*16423 FILLER_93_1924
*16424 FILLER_93_1932
*16425 FILLER_93_1936
*16426 FILLER_93_2
*16427 FILLER_93_206
*16428 FILLER_93_212
*16429 FILLER_93_276
*16430 FILLER_93_282
*16431 FILLER_93_346
*16432 FILLER_93_352
*16433 FILLER_93_416
*16434 FILLER_93_422
*16435 FILLER_93_486
*16436 FILLER_93_492
*16437 FILLER_93_556
*16438 FILLER_93_562
*16439 FILLER_93_626
*16440 FILLER_93_632
*16441 FILLER_93_66
*16442 FILLER_93_696
*16443 FILLER_93_702
*16444 FILLER_93_72
*16445 FILLER_93_766
*16446 FILLER_93_772
*16447 FILLER_93_836
*16448 FILLER_93_842
*16449 FILLER_93_906
*16450 FILLER_93_912
*16451 FILLER_93_976
*16452 FILLER_93_982
*16453 FILLER_94_101
*16454 FILLER_94_1011
*16455 FILLER_94_1017
*16456 FILLER_94_107
*16457 FILLER_94_1081
*16458 FILLER_94_1087
*16459 FILLER_94_1151
*16460 FILLER_94_1157
*16461 FILLER_94_1221
*16462 FILLER_94_1227
*16463 FILLER_94_1291
*16464 FILLER_94_1297
*16465 FILLER_94_1361
*16466 FILLER_94_1367
*16467 FILLER_94_1431
*16468 FILLER_94_1437
*16469 FILLER_94_1501
*16470 FILLER_94_1507
*16471 FILLER_94_1571
*16472 FILLER_94_1577
*16473 FILLER_94_1641
*16474 FILLER_94_1647
*16475 FILLER_94_171
*16476 FILLER_94_1711
*16477 FILLER_94_1717
*16478 FILLER_94_177
*16479 FILLER_94_1781
*16480 FILLER_94_1787
*16481 FILLER_94_1851
*16482 FILLER_94_1857
*16483 FILLER_94_1921
*16484 FILLER_94_1927
*16485 FILLER_94_1935
*16486 FILLER_94_1937
*16487 FILLER_94_2
*16488 FILLER_94_241
*16489 FILLER_94_247
*16490 FILLER_94_311
*16491 FILLER_94_317
*16492 FILLER_94_34
*16493 FILLER_94_37
*16494 FILLER_94_381
*16495 FILLER_94_387
*16496 FILLER_94_451
*16497 FILLER_94_457
*16498 FILLER_94_521
*16499 FILLER_94_527
*16500 FILLER_94_591
*16501 FILLER_94_597
*16502 FILLER_94_661
*16503 FILLER_94_667
*16504 FILLER_94_731
*16505 FILLER_94_737
*16506 FILLER_94_801
*16507 FILLER_94_807
*16508 FILLER_94_871
*16509 FILLER_94_877
*16510 FILLER_94_941
*16511 FILLER_94_947
*16512 FILLER_95_1046
*16513 FILLER_95_1052
*16514 FILLER_95_1116
*16515 FILLER_95_1122
*16516 FILLER_95_1186
*16517 FILLER_95_1192
*16518 FILLER_95_1256
*16519 FILLER_95_1262
*16520 FILLER_95_1326
*16521 FILLER_95_1332
*16522 FILLER_95_136
*16523 FILLER_95_1396
*16524 FILLER_95_1402
*16525 FILLER_95_142
*16526 FILLER_95_1466
*16527 FILLER_95_1472
*16528 FILLER_95_1536
*16529 FILLER_95_1542
*16530 FILLER_95_1606
*16531 FILLER_95_1612
*16532 FILLER_95_1676
*16533 FILLER_95_1682
*16534 FILLER_95_1746
*16535 FILLER_95_1752
*16536 FILLER_95_1816
*16537 FILLER_95_1822
*16538 FILLER_95_1886
*16539 FILLER_95_1892
*16540 FILLER_95_1924
*16541 FILLER_95_1932
*16542 FILLER_95_1936
*16543 FILLER_95_2
*16544 FILLER_95_206
*16545 FILLER_95_212
*16546 FILLER_95_276
*16547 FILLER_95_282
*16548 FILLER_95_346
*16549 FILLER_95_352
*16550 FILLER_95_416
*16551 FILLER_95_422
*16552 FILLER_95_486
*16553 FILLER_95_492
*16554 FILLER_95_556
*16555 FILLER_95_562
*16556 FILLER_95_626
*16557 FILLER_95_632
*16558 FILLER_95_66
*16559 FILLER_95_696
*16560 FILLER_95_702
*16561 FILLER_95_72
*16562 FILLER_95_766
*16563 FILLER_95_772
*16564 FILLER_95_836
*16565 FILLER_95_842
*16566 FILLER_95_906
*16567 FILLER_95_912
*16568 FILLER_95_976
*16569 FILLER_95_982
*16570 FILLER_96_101
*16571 FILLER_96_1011
*16572 FILLER_96_1017
*16573 FILLER_96_107
*16574 FILLER_96_1081
*16575 FILLER_96_1087
*16576 FILLER_96_1151
*16577 FILLER_96_1157
*16578 FILLER_96_1221
*16579 FILLER_96_1227
*16580 FILLER_96_1291
*16581 FILLER_96_1297
*16582 FILLER_96_1361
*16583 FILLER_96_1367
*16584 FILLER_96_1431
*16585 FILLER_96_1437
*16586 FILLER_96_1501
*16587 FILLER_96_1507
*16588 FILLER_96_1571
*16589 FILLER_96_1577
*16590 FILLER_96_1641
*16591 FILLER_96_1647
*16592 FILLER_96_171
*16593 FILLER_96_1711
*16594 FILLER_96_1717
*16595 FILLER_96_177
*16596 FILLER_96_1781
*16597 FILLER_96_1787
*16598 FILLER_96_1851
*16599 FILLER_96_1857
*16600 FILLER_96_1921
*16601 FILLER_96_1927
*16602 FILLER_96_1935
*16603 FILLER_96_1937
*16604 FILLER_96_2
*16605 FILLER_96_241
*16606 FILLER_96_247
*16607 FILLER_96_311
*16608 FILLER_96_317
*16609 FILLER_96_34
*16610 FILLER_96_37
*16611 FILLER_96_381
*16612 FILLER_96_387
*16613 FILLER_96_451
*16614 FILLER_96_457
*16615 FILLER_96_521
*16616 FILLER_96_527
*16617 FILLER_96_591
*16618 FILLER_96_597
*16619 FILLER_96_661
*16620 FILLER_96_667
*16621 FILLER_96_731
*16622 FILLER_96_737
*16623 FILLER_96_801
*16624 FILLER_96_807
*16625 FILLER_96_871
*16626 FILLER_96_877
*16627 FILLER_96_941
*16628 FILLER_96_947
*16629 FILLER_97_1046
*16630 FILLER_97_1052
*16631 FILLER_97_1116
*16632 FILLER_97_1122
*16633 FILLER_97_1186
*16634 FILLER_97_1192
*16635 FILLER_97_1256
*16636 FILLER_97_1262
*16637 FILLER_97_1326
*16638 FILLER_97_1332
*16639 FILLER_97_136
*16640 FILLER_97_1396
*16641 FILLER_97_1402
*16642 FILLER_97_142
*16643 FILLER_97_1466
*16644 FILLER_97_1472
*16645 FILLER_97_1536
*16646 FILLER_97_1542
*16647 FILLER_97_1606
*16648 FILLER_97_1612
*16649 FILLER_97_1676
*16650 FILLER_97_1682
*16651 FILLER_97_1746
*16652 FILLER_97_1752
*16653 FILLER_97_1816
*16654 FILLER_97_1822
*16655 FILLER_97_1886
*16656 FILLER_97_1892
*16657 FILLER_97_1924
*16658 FILLER_97_1932
*16659 FILLER_97_1936
*16660 FILLER_97_2
*16661 FILLER_97_206
*16662 FILLER_97_212
*16663 FILLER_97_276
*16664 FILLER_97_282
*16665 FILLER_97_346
*16666 FILLER_97_352
*16667 FILLER_97_416
*16668 FILLER_97_422
*16669 FILLER_97_486
*16670 FILLER_97_492
*16671 FILLER_97_556
*16672 FILLER_97_562
*16673 FILLER_97_626
*16674 FILLER_97_632
*16675 FILLER_97_66
*16676 FILLER_97_696
*16677 FILLER_97_702
*16678 FILLER_97_72
*16679 FILLER_97_766
*16680 FILLER_97_772
*16681 FILLER_97_836
*16682 FILLER_97_842
*16683 FILLER_97_906
*16684 FILLER_97_912
*16685 FILLER_97_976
*16686 FILLER_97_982
*16687 FILLER_98_101
*16688 FILLER_98_1011
*16689 FILLER_98_1017
*16690 FILLER_98_107
*16691 FILLER_98_1081
*16692 FILLER_98_1087
*16693 FILLER_98_1151
*16694 FILLER_98_1157
*16695 FILLER_98_1221
*16696 FILLER_98_1227
*16697 FILLER_98_1291
*16698 FILLER_98_1297
*16699 FILLER_98_1361
*16700 FILLER_98_1367
*16701 FILLER_98_1431
*16702 FILLER_98_1437
*16703 FILLER_98_1501
*16704 FILLER_98_1507
*16705 FILLER_98_1571
*16706 FILLER_98_1577
*16707 FILLER_98_1641
*16708 FILLER_98_1647
*16709 FILLER_98_171
*16710 FILLER_98_1711
*16711 FILLER_98_1717
*16712 FILLER_98_177
*16713 FILLER_98_1781
*16714 FILLER_98_1787
*16715 FILLER_98_1851
*16716 FILLER_98_1857
*16717 FILLER_98_1921
*16718 FILLER_98_1927
*16719 FILLER_98_1935
*16720 FILLER_98_1937
*16721 FILLER_98_2
*16722 FILLER_98_241
*16723 FILLER_98_247
*16724 FILLER_98_311
*16725 FILLER_98_317
*16726 FILLER_98_34
*16727 FILLER_98_37
*16728 FILLER_98_381
*16729 FILLER_98_387
*16730 FILLER_98_451
*16731 FILLER_98_457
*16732 FILLER_98_521
*16733 FILLER_98_527
*16734 FILLER_98_591
*16735 FILLER_98_597
*16736 FILLER_98_661
*16737 FILLER_98_667
*16738 FILLER_98_731
*16739 FILLER_98_737
*16740 FILLER_98_801
*16741 FILLER_98_807
*16742 FILLER_98_871
*16743 FILLER_98_877
*16744 FILLER_98_941
*16745 FILLER_98_947
*16746 FILLER_99_1046
*16747 FILLER_99_1052
*16748 FILLER_99_1116
*16749 FILLER_99_1122
*16750 FILLER_99_1186
*16751 FILLER_99_1192
*16752 FILLER_99_1256
*16753 FILLER_99_1262
*16754 FILLER_99_1326
*16755 FILLER_99_1332
*16756 FILLER_99_136
*16757 FILLER_99_1396
*16758 FILLER_99_1402
*16759 FILLER_99_142
*16760 FILLER_99_1466
*16761 FILLER_99_1472
*16762 FILLER_99_1536
*16763 FILLER_99_1542
*16764 FILLER_99_1606
*16765 FILLER_99_1612
*16766 FILLER_99_1676
*16767 FILLER_99_1682
*16768 FILLER_99_1746
*16769 FILLER_99_1752
*16770 FILLER_99_1816
*16771 FILLER_99_1822
*16772 FILLER_99_1886
*16773 FILLER_99_1892
*16774 FILLER_99_1924
*16775 FILLER_99_1932
*16776 FILLER_99_1936
*16777 FILLER_99_2
*16778 FILLER_99_206
*16779 FILLER_99_212
*16780 FILLER_99_276
*16781 FILLER_99_282
*16782 FILLER_99_346
*16783 FILLER_99_352
*16784 FILLER_99_416
*16785 FILLER_99_422
*16786 FILLER_99_486
*16787 FILLER_99_492
*16788 FILLER_99_556
*16789 FILLER_99_562
*16790 FILLER_99_626
*16791 FILLER_99_632
*16792 FILLER_99_66
*16793 FILLER_99_696
*16794 FILLER_99_702
*16795 FILLER_99_72
*16796 FILLER_99_766
*16797 FILLER_99_772
*16798 FILLER_99_836
*16799 FILLER_99_842
*16800 FILLER_99_906
*16801 FILLER_99_912
*16802 FILLER_99_976
*16803 FILLER_99_982
*16804 FILLER_9_1046
*16805 FILLER_9_1052
*16806 FILLER_9_1116
*16807 FILLER_9_1122
*16808 FILLER_9_1186
*16809 FILLER_9_1192
*16810 FILLER_9_1256
*16811 FILLER_9_1262
*16812 FILLER_9_1326
*16813 FILLER_9_1332
*16814 FILLER_9_136
*16815 FILLER_9_1396
*16816 FILLER_9_1402
*16817 FILLER_9_142
*16818 FILLER_9_1466
*16819 FILLER_9_1472
*16820 FILLER_9_1536
*16821 FILLER_9_1542
*16822 FILLER_9_1606
*16823 FILLER_9_1612
*16824 FILLER_9_1676
*16825 FILLER_9_1682
*16826 FILLER_9_1746
*16827 FILLER_9_1752
*16828 FILLER_9_1816
*16829 FILLER_9_1822
*16830 FILLER_9_1886
*16831 FILLER_9_1892
*16832 FILLER_9_1924
*16833 FILLER_9_1932
*16834 FILLER_9_1936
*16835 FILLER_9_2
*16836 FILLER_9_206
*16837 FILLER_9_212
*16838 FILLER_9_276
*16839 FILLER_9_282
*16840 FILLER_9_346
*16841 FILLER_9_352
*16842 FILLER_9_416
*16843 FILLER_9_422
*16844 FILLER_9_486
*16845 FILLER_9_492
*16846 FILLER_9_556
*16847 FILLER_9_562
*16848 FILLER_9_626
*16849 FILLER_9_632
*16850 FILLER_9_66
*16851 FILLER_9_696
*16852 FILLER_9_702
*16853 FILLER_9_72
*16854 FILLER_9_766
*16855 FILLER_9_772
*16856 FILLER_9_836
*16857 FILLER_9_842
*16858 FILLER_9_906
*16859 FILLER_9_912
*16860 FILLER_9_976
*16861 FILLER_9_982
*16862 PHY_EDGE_ROW_0_Left_272
*16863 PHY_EDGE_ROW_0_Right_0
*16864 PHY_EDGE_ROW_100_Left_372
*16865 PHY_EDGE_ROW_100_Right_100
*16866 PHY_EDGE_ROW_101_Left_373
*16867 PHY_EDGE_ROW_101_Right_101
*16868 PHY_EDGE_ROW_102_Left_374
*16869 PHY_EDGE_ROW_102_Right_102
*16870 PHY_EDGE_ROW_103_Left_375
*16871 PHY_EDGE_ROW_103_Right_103
*16872 PHY_EDGE_ROW_104_Left_376
*16873 PHY_EDGE_ROW_104_Right_104
*16874 PHY_EDGE_ROW_105_Left_377
*16875 PHY_EDGE_ROW_105_Right_105
*16876 PHY_EDGE_ROW_106_Left_378
*16877 PHY_EDGE_ROW_106_Right_106
*16878 PHY_EDGE_ROW_107_Left_379
*16879 PHY_EDGE_ROW_107_Right_107
*16880 PHY_EDGE_ROW_108_Left_380
*16881 PHY_EDGE_ROW_108_Right_108
*16882 PHY_EDGE_ROW_109_Left_381
*16883 PHY_EDGE_ROW_109_Right_109
*16884 PHY_EDGE_ROW_10_Left_282
*16885 PHY_EDGE_ROW_10_Right_10
*16886 PHY_EDGE_ROW_110_Left_382
*16887 PHY_EDGE_ROW_110_Right_110
*16888 PHY_EDGE_ROW_111_Left_383
*16889 PHY_EDGE_ROW_111_Right_111
*16890 PHY_EDGE_ROW_112_Left_384
*16891 PHY_EDGE_ROW_112_Right_112
*16892 PHY_EDGE_ROW_113_Left_385
*16893 PHY_EDGE_ROW_113_Right_113
*16894 PHY_EDGE_ROW_114_Left_386
*16895 PHY_EDGE_ROW_114_Right_114
*16896 PHY_EDGE_ROW_115_Left_387
*16897 PHY_EDGE_ROW_115_Right_115
*16898 PHY_EDGE_ROW_116_Left_388
*16899 PHY_EDGE_ROW_116_Right_116
*16900 PHY_EDGE_ROW_117_Left_389
*16901 PHY_EDGE_ROW_117_Right_117
*16902 PHY_EDGE_ROW_118_Left_390
*16903 PHY_EDGE_ROW_118_Right_118
*16904 PHY_EDGE_ROW_119_Left_391
*16905 PHY_EDGE_ROW_119_Right_119
*16906 PHY_EDGE_ROW_11_Left_283
*16907 PHY_EDGE_ROW_11_Right_11
*16908 PHY_EDGE_ROW_120_Left_392
*16909 PHY_EDGE_ROW_120_Right_120
*16910 PHY_EDGE_ROW_121_Left_393
*16911 PHY_EDGE_ROW_121_Right_121
*16912 PHY_EDGE_ROW_122_Left_394
*16913 PHY_EDGE_ROW_122_Right_122
*16914 PHY_EDGE_ROW_123_Left_395
*16915 PHY_EDGE_ROW_123_Right_123
*16916 PHY_EDGE_ROW_124_Left_396
*16917 PHY_EDGE_ROW_124_Right_124
*16918 PHY_EDGE_ROW_125_Left_397
*16919 PHY_EDGE_ROW_125_Right_125
*16920 PHY_EDGE_ROW_126_Left_398
*16921 PHY_EDGE_ROW_126_Right_126
*16922 PHY_EDGE_ROW_127_Left_399
*16923 PHY_EDGE_ROW_127_Right_127
*16924 PHY_EDGE_ROW_128_Left_400
*16925 PHY_EDGE_ROW_128_Right_128
*16926 PHY_EDGE_ROW_129_Left_401
*16927 PHY_EDGE_ROW_129_Right_129
*16928 PHY_EDGE_ROW_12_Left_284
*16929 PHY_EDGE_ROW_12_Right_12
*16930 PHY_EDGE_ROW_130_Left_402
*16931 PHY_EDGE_ROW_130_Right_130
*16932 PHY_EDGE_ROW_131_Left_403
*16933 PHY_EDGE_ROW_131_Right_131
*16934 PHY_EDGE_ROW_132_Left_404
*16935 PHY_EDGE_ROW_132_Right_132
*16936 PHY_EDGE_ROW_133_Left_405
*16937 PHY_EDGE_ROW_133_Right_133
*16938 PHY_EDGE_ROW_134_Left_406
*16939 PHY_EDGE_ROW_134_Right_134
*16940 PHY_EDGE_ROW_135_Left_407
*16941 PHY_EDGE_ROW_135_Right_135
*16942 PHY_EDGE_ROW_136_Left_408
*16943 PHY_EDGE_ROW_136_Right_136
*16944 PHY_EDGE_ROW_137_Left_409
*16945 PHY_EDGE_ROW_137_Right_137
*16946 PHY_EDGE_ROW_138_Left_410
*16947 PHY_EDGE_ROW_138_Right_138
*16948 PHY_EDGE_ROW_139_Left_411
*16949 PHY_EDGE_ROW_139_Right_139
*16950 PHY_EDGE_ROW_13_Left_285
*16951 PHY_EDGE_ROW_13_Right_13
*16952 PHY_EDGE_ROW_140_Left_412
*16953 PHY_EDGE_ROW_140_Right_140
*16954 PHY_EDGE_ROW_141_Left_413
*16955 PHY_EDGE_ROW_141_Right_141
*16956 PHY_EDGE_ROW_142_Left_414
*16957 PHY_EDGE_ROW_142_Right_142
*16958 PHY_EDGE_ROW_143_Left_415
*16959 PHY_EDGE_ROW_143_Right_143
*16960 PHY_EDGE_ROW_144_Left_416
*16961 PHY_EDGE_ROW_144_Right_144
*16962 PHY_EDGE_ROW_145_Left_417
*16963 PHY_EDGE_ROW_145_Right_145
*16964 PHY_EDGE_ROW_146_Left_418
*16965 PHY_EDGE_ROW_146_Right_146
*16966 PHY_EDGE_ROW_147_Left_419
*16967 PHY_EDGE_ROW_147_Right_147
*16968 PHY_EDGE_ROW_148_Left_420
*16969 PHY_EDGE_ROW_148_Right_148
*16970 PHY_EDGE_ROW_149_Left_421
*16971 PHY_EDGE_ROW_149_Right_149
*16972 PHY_EDGE_ROW_14_Left_286
*16973 PHY_EDGE_ROW_14_Right_14
*16974 PHY_EDGE_ROW_150_Left_422
*16975 PHY_EDGE_ROW_150_Right_150
*16976 PHY_EDGE_ROW_151_Left_423
*16977 PHY_EDGE_ROW_151_Right_151
*16978 PHY_EDGE_ROW_152_Left_424
*16979 PHY_EDGE_ROW_152_Right_152
*16980 PHY_EDGE_ROW_153_Left_425
*16981 PHY_EDGE_ROW_153_Right_153
*16982 PHY_EDGE_ROW_154_Left_426
*16983 PHY_EDGE_ROW_154_Right_154
*16984 PHY_EDGE_ROW_155_Left_427
*16985 PHY_EDGE_ROW_155_Right_155
*16986 PHY_EDGE_ROW_156_Left_428
*16987 PHY_EDGE_ROW_156_Right_156
*16988 PHY_EDGE_ROW_157_Left_429
*16989 PHY_EDGE_ROW_157_Right_157
*16990 PHY_EDGE_ROW_158_Left_430
*16991 PHY_EDGE_ROW_158_Right_158
*16992 PHY_EDGE_ROW_159_Left_431
*16993 PHY_EDGE_ROW_159_Right_159
*16994 PHY_EDGE_ROW_15_Left_287
*16995 PHY_EDGE_ROW_15_Right_15
*16996 PHY_EDGE_ROW_160_Left_432
*16997 PHY_EDGE_ROW_160_Right_160
*16998 PHY_EDGE_ROW_161_Left_433
*16999 PHY_EDGE_ROW_161_Right_161
*17000 PHY_EDGE_ROW_162_Left_434
*17001 PHY_EDGE_ROW_162_Right_162
*17002 PHY_EDGE_ROW_163_Left_435
*17003 PHY_EDGE_ROW_163_Right_163
*17004 PHY_EDGE_ROW_164_Left_436
*17005 PHY_EDGE_ROW_164_Right_164
*17006 PHY_EDGE_ROW_165_Left_437
*17007 PHY_EDGE_ROW_165_Right_165
*17008 PHY_EDGE_ROW_166_Left_438
*17009 PHY_EDGE_ROW_166_Right_166
*17010 PHY_EDGE_ROW_167_Left_439
*17011 PHY_EDGE_ROW_167_Right_167
*17012 PHY_EDGE_ROW_168_Left_440
*17013 PHY_EDGE_ROW_168_Right_168
*17014 PHY_EDGE_ROW_169_Left_441
*17015 PHY_EDGE_ROW_169_Right_169
*17016 PHY_EDGE_ROW_16_Left_288
*17017 PHY_EDGE_ROW_16_Right_16
*17018 PHY_EDGE_ROW_170_Left_442
*17019 PHY_EDGE_ROW_170_Right_170
*17020 PHY_EDGE_ROW_171_Left_443
*17021 PHY_EDGE_ROW_171_Right_171
*17022 PHY_EDGE_ROW_172_Left_444
*17023 PHY_EDGE_ROW_172_Right_172
*17024 PHY_EDGE_ROW_173_Left_445
*17025 PHY_EDGE_ROW_173_Right_173
*17026 PHY_EDGE_ROW_174_Left_446
*17027 PHY_EDGE_ROW_174_Right_174
*17028 PHY_EDGE_ROW_175_Left_447
*17029 PHY_EDGE_ROW_175_Right_175
*17030 PHY_EDGE_ROW_176_Left_448
*17031 PHY_EDGE_ROW_176_Right_176
*17032 PHY_EDGE_ROW_177_Left_449
*17033 PHY_EDGE_ROW_177_Right_177
*17034 PHY_EDGE_ROW_178_Left_450
*17035 PHY_EDGE_ROW_178_Right_178
*17036 PHY_EDGE_ROW_179_Left_451
*17037 PHY_EDGE_ROW_179_Right_179
*17038 PHY_EDGE_ROW_17_Left_289
*17039 PHY_EDGE_ROW_17_Right_17
*17040 PHY_EDGE_ROW_180_Left_452
*17041 PHY_EDGE_ROW_180_Right_180
*17042 PHY_EDGE_ROW_181_Left_453
*17043 PHY_EDGE_ROW_181_Right_181
*17044 PHY_EDGE_ROW_182_Left_454
*17045 PHY_EDGE_ROW_182_Right_182
*17046 PHY_EDGE_ROW_183_Left_455
*17047 PHY_EDGE_ROW_183_Right_183
*17048 PHY_EDGE_ROW_184_Left_456
*17049 PHY_EDGE_ROW_184_Right_184
*17050 PHY_EDGE_ROW_185_Left_457
*17051 PHY_EDGE_ROW_185_Right_185
*17052 PHY_EDGE_ROW_186_Left_458
*17053 PHY_EDGE_ROW_186_Right_186
*17054 PHY_EDGE_ROW_187_Left_459
*17055 PHY_EDGE_ROW_187_Right_187
*17056 PHY_EDGE_ROW_188_Left_460
*17057 PHY_EDGE_ROW_188_Right_188
*17058 PHY_EDGE_ROW_189_Left_461
*17059 PHY_EDGE_ROW_189_Right_189
*17060 PHY_EDGE_ROW_18_Left_290
*17061 PHY_EDGE_ROW_18_Right_18
*17062 PHY_EDGE_ROW_190_Left_462
*17063 PHY_EDGE_ROW_190_Right_190
*17064 PHY_EDGE_ROW_191_Left_463
*17065 PHY_EDGE_ROW_191_Right_191
*17066 PHY_EDGE_ROW_192_Left_464
*17067 PHY_EDGE_ROW_192_Right_192
*17068 PHY_EDGE_ROW_193_Left_465
*17069 PHY_EDGE_ROW_193_Right_193
*17070 PHY_EDGE_ROW_194_Left_466
*17071 PHY_EDGE_ROW_194_Right_194
*17072 PHY_EDGE_ROW_195_Left_467
*17073 PHY_EDGE_ROW_195_Right_195
*17074 PHY_EDGE_ROW_196_Left_468
*17075 PHY_EDGE_ROW_196_Right_196
*17076 PHY_EDGE_ROW_197_Left_469
*17077 PHY_EDGE_ROW_197_Right_197
*17078 PHY_EDGE_ROW_198_Left_470
*17079 PHY_EDGE_ROW_198_Right_198
*17080 PHY_EDGE_ROW_199_Left_471
*17081 PHY_EDGE_ROW_199_Right_199
*17082 PHY_EDGE_ROW_19_Left_291
*17083 PHY_EDGE_ROW_19_Right_19
*17084 PHY_EDGE_ROW_1_Left_273
*17085 PHY_EDGE_ROW_1_Right_1
*17086 PHY_EDGE_ROW_200_Left_472
*17087 PHY_EDGE_ROW_200_Right_200
*17088 PHY_EDGE_ROW_201_Left_473
*17089 PHY_EDGE_ROW_201_Right_201
*17090 PHY_EDGE_ROW_202_Left_474
*17091 PHY_EDGE_ROW_202_Right_202
*17092 PHY_EDGE_ROW_203_Left_475
*17093 PHY_EDGE_ROW_203_Right_203
*17094 PHY_EDGE_ROW_204_Left_476
*17095 PHY_EDGE_ROW_204_Right_204
*17096 PHY_EDGE_ROW_205_Left_477
*17097 PHY_EDGE_ROW_205_Right_205
*17098 PHY_EDGE_ROW_206_Left_478
*17099 PHY_EDGE_ROW_206_Right_206
*17100 PHY_EDGE_ROW_207_Left_479
*17101 PHY_EDGE_ROW_207_Right_207
*17102 PHY_EDGE_ROW_208_Left_480
*17103 PHY_EDGE_ROW_208_Right_208
*17104 PHY_EDGE_ROW_209_Left_481
*17105 PHY_EDGE_ROW_209_Right_209
*17106 PHY_EDGE_ROW_20_Left_292
*17107 PHY_EDGE_ROW_20_Right_20
*17108 PHY_EDGE_ROW_210_Left_482
*17109 PHY_EDGE_ROW_210_Right_210
*17110 PHY_EDGE_ROW_211_Left_483
*17111 PHY_EDGE_ROW_211_Right_211
*17112 PHY_EDGE_ROW_212_Left_484
*17113 PHY_EDGE_ROW_212_Right_212
*17114 PHY_EDGE_ROW_213_Left_485
*17115 PHY_EDGE_ROW_213_Right_213
*17116 PHY_EDGE_ROW_214_Left_486
*17117 PHY_EDGE_ROW_214_Right_214
*17118 PHY_EDGE_ROW_215_Left_487
*17119 PHY_EDGE_ROW_215_Right_215
*17120 PHY_EDGE_ROW_216_Left_488
*17121 PHY_EDGE_ROW_216_Right_216
*17122 PHY_EDGE_ROW_217_Left_489
*17123 PHY_EDGE_ROW_217_Right_217
*17124 PHY_EDGE_ROW_218_Left_490
*17125 PHY_EDGE_ROW_218_Right_218
*17126 PHY_EDGE_ROW_219_Left_491
*17127 PHY_EDGE_ROW_219_Right_219
*17128 PHY_EDGE_ROW_21_Left_293
*17129 PHY_EDGE_ROW_21_Right_21
*17130 PHY_EDGE_ROW_220_Left_492
*17131 PHY_EDGE_ROW_220_Right_220
*17132 PHY_EDGE_ROW_221_Left_493
*17133 PHY_EDGE_ROW_221_Right_221
*17134 PHY_EDGE_ROW_222_Left_494
*17135 PHY_EDGE_ROW_222_Right_222
*17136 PHY_EDGE_ROW_223_Left_495
*17137 PHY_EDGE_ROW_223_Right_223
*17138 PHY_EDGE_ROW_224_Left_496
*17139 PHY_EDGE_ROW_224_Right_224
*17140 PHY_EDGE_ROW_225_Left_497
*17141 PHY_EDGE_ROW_225_Right_225
*17142 PHY_EDGE_ROW_226_Left_498
*17143 PHY_EDGE_ROW_226_Right_226
*17144 PHY_EDGE_ROW_227_Left_499
*17145 PHY_EDGE_ROW_227_Right_227
*17146 PHY_EDGE_ROW_228_Left_500
*17147 PHY_EDGE_ROW_228_Right_228
*17148 PHY_EDGE_ROW_229_Left_501
*17149 PHY_EDGE_ROW_229_Right_229
*17150 PHY_EDGE_ROW_22_Left_294
*17151 PHY_EDGE_ROW_22_Right_22
*17152 PHY_EDGE_ROW_230_Left_502
*17153 PHY_EDGE_ROW_230_Right_230
*17154 PHY_EDGE_ROW_231_Left_503
*17155 PHY_EDGE_ROW_231_Right_231
*17156 PHY_EDGE_ROW_232_Left_504
*17157 PHY_EDGE_ROW_232_Right_232
*17158 PHY_EDGE_ROW_233_Left_505
*17159 PHY_EDGE_ROW_233_Right_233
*17160 PHY_EDGE_ROW_234_Left_506
*17161 PHY_EDGE_ROW_234_Right_234
*17162 PHY_EDGE_ROW_235_Left_507
*17163 PHY_EDGE_ROW_235_Right_235
*17164 PHY_EDGE_ROW_236_Left_508
*17165 PHY_EDGE_ROW_236_Right_236
*17166 PHY_EDGE_ROW_237_Left_509
*17167 PHY_EDGE_ROW_237_Right_237
*17168 PHY_EDGE_ROW_238_Left_510
*17169 PHY_EDGE_ROW_238_Right_238
*17170 PHY_EDGE_ROW_239_Left_511
*17171 PHY_EDGE_ROW_239_Right_239
*17172 PHY_EDGE_ROW_23_Left_295
*17173 PHY_EDGE_ROW_23_Right_23
*17174 PHY_EDGE_ROW_240_Left_512
*17175 PHY_EDGE_ROW_240_Right_240
*17176 PHY_EDGE_ROW_241_Left_513
*17177 PHY_EDGE_ROW_241_Right_241
*17178 PHY_EDGE_ROW_242_Left_514
*17179 PHY_EDGE_ROW_242_Right_242
*17180 PHY_EDGE_ROW_243_Left_515
*17181 PHY_EDGE_ROW_243_Right_243
*17182 PHY_EDGE_ROW_244_Left_516
*17183 PHY_EDGE_ROW_244_Right_244
*17184 PHY_EDGE_ROW_245_Left_517
*17185 PHY_EDGE_ROW_245_Right_245
*17186 PHY_EDGE_ROW_246_Left_518
*17187 PHY_EDGE_ROW_246_Right_246
*17188 PHY_EDGE_ROW_247_Left_519
*17189 PHY_EDGE_ROW_247_Right_247
*17190 PHY_EDGE_ROW_248_Left_520
*17191 PHY_EDGE_ROW_248_Right_248
*17192 PHY_EDGE_ROW_249_Left_521
*17193 PHY_EDGE_ROW_249_Right_249
*17194 PHY_EDGE_ROW_24_Left_296
*17195 PHY_EDGE_ROW_24_Right_24
*17196 PHY_EDGE_ROW_250_Left_522
*17197 PHY_EDGE_ROW_250_Right_250
*17198 PHY_EDGE_ROW_251_Left_523
*17199 PHY_EDGE_ROW_251_Right_251
*17200 PHY_EDGE_ROW_252_Left_524
*17201 PHY_EDGE_ROW_252_Right_252
*17202 PHY_EDGE_ROW_253_Left_525
*17203 PHY_EDGE_ROW_253_Right_253
*17204 PHY_EDGE_ROW_254_Left_526
*17205 PHY_EDGE_ROW_254_Right_254
*17206 PHY_EDGE_ROW_255_Left_527
*17207 PHY_EDGE_ROW_255_Right_255
*17208 PHY_EDGE_ROW_256_Left_528
*17209 PHY_EDGE_ROW_256_Right_256
*17210 PHY_EDGE_ROW_257_Left_529
*17211 PHY_EDGE_ROW_257_Right_257
*17212 PHY_EDGE_ROW_258_Left_530
*17213 PHY_EDGE_ROW_258_Right_258
*17214 PHY_EDGE_ROW_259_Left_531
*17215 PHY_EDGE_ROW_259_Right_259
*17216 PHY_EDGE_ROW_25_Left_297
*17217 PHY_EDGE_ROW_25_Right_25
*17218 PHY_EDGE_ROW_260_Left_532
*17219 PHY_EDGE_ROW_260_Right_260
*17220 PHY_EDGE_ROW_261_Left_533
*17221 PHY_EDGE_ROW_261_Right_261
*17222 PHY_EDGE_ROW_262_Left_534
*17223 PHY_EDGE_ROW_262_Right_262
*17224 PHY_EDGE_ROW_263_Left_535
*17225 PHY_EDGE_ROW_263_Right_263
*17226 PHY_EDGE_ROW_264_Left_536
*17227 PHY_EDGE_ROW_264_Right_264
*17228 PHY_EDGE_ROW_265_Left_537
*17229 PHY_EDGE_ROW_265_Right_265
*17230 PHY_EDGE_ROW_266_Left_538
*17231 PHY_EDGE_ROW_266_Right_266
*17232 PHY_EDGE_ROW_267_Left_539
*17233 PHY_EDGE_ROW_267_Right_267
*17234 PHY_EDGE_ROW_268_Left_540
*17235 PHY_EDGE_ROW_268_Right_268
*17236 PHY_EDGE_ROW_269_Left_541
*17237 PHY_EDGE_ROW_269_Right_269
*17238 PHY_EDGE_ROW_26_Left_298
*17239 PHY_EDGE_ROW_26_Right_26
*17240 PHY_EDGE_ROW_270_Left_542
*17241 PHY_EDGE_ROW_270_Right_270
*17242 PHY_EDGE_ROW_271_Left_543
*17243 PHY_EDGE_ROW_271_Right_271
*17244 PHY_EDGE_ROW_27_Left_299
*17245 PHY_EDGE_ROW_27_Right_27
*17246 PHY_EDGE_ROW_28_Left_300
*17247 PHY_EDGE_ROW_28_Right_28
*17248 PHY_EDGE_ROW_29_Left_301
*17249 PHY_EDGE_ROW_29_Right_29
*17250 PHY_EDGE_ROW_2_Left_274
*17251 PHY_EDGE_ROW_2_Right_2
*17252 PHY_EDGE_ROW_30_Left_302
*17253 PHY_EDGE_ROW_30_Right_30
*17254 PHY_EDGE_ROW_31_Left_303
*17255 PHY_EDGE_ROW_31_Right_31
*17256 PHY_EDGE_ROW_32_Left_304
*17257 PHY_EDGE_ROW_32_Right_32
*17258 PHY_EDGE_ROW_33_Left_305
*17259 PHY_EDGE_ROW_33_Right_33
*17260 PHY_EDGE_ROW_34_Left_306
*17261 PHY_EDGE_ROW_34_Right_34
*17262 PHY_EDGE_ROW_35_Left_307
*17263 PHY_EDGE_ROW_35_Right_35
*17264 PHY_EDGE_ROW_36_Left_308
*17265 PHY_EDGE_ROW_36_Right_36
*17266 PHY_EDGE_ROW_37_Left_309
*17267 PHY_EDGE_ROW_37_Right_37
*17268 PHY_EDGE_ROW_38_Left_310
*17269 PHY_EDGE_ROW_38_Right_38
*17270 PHY_EDGE_ROW_39_Left_311
*17271 PHY_EDGE_ROW_39_Right_39
*17272 PHY_EDGE_ROW_3_Left_275
*17273 PHY_EDGE_ROW_3_Right_3
*17274 PHY_EDGE_ROW_40_Left_312
*17275 PHY_EDGE_ROW_40_Right_40
*17276 PHY_EDGE_ROW_41_Left_313
*17277 PHY_EDGE_ROW_41_Right_41
*17278 PHY_EDGE_ROW_42_Left_314
*17279 PHY_EDGE_ROW_42_Right_42
*17280 PHY_EDGE_ROW_43_Left_315
*17281 PHY_EDGE_ROW_43_Right_43
*17282 PHY_EDGE_ROW_44_Left_316
*17283 PHY_EDGE_ROW_44_Right_44
*17284 PHY_EDGE_ROW_45_Left_317
*17285 PHY_EDGE_ROW_45_Right_45
*17286 PHY_EDGE_ROW_46_Left_318
*17287 PHY_EDGE_ROW_46_Right_46
*17288 PHY_EDGE_ROW_47_Left_319
*17289 PHY_EDGE_ROW_47_Right_47
*17290 PHY_EDGE_ROW_48_Left_320
*17291 PHY_EDGE_ROW_48_Right_48
*17292 PHY_EDGE_ROW_49_Left_321
*17293 PHY_EDGE_ROW_49_Right_49
*17294 PHY_EDGE_ROW_4_Left_276
*17295 PHY_EDGE_ROW_4_Right_4
*17296 PHY_EDGE_ROW_50_Left_322
*17297 PHY_EDGE_ROW_50_Right_50
*17298 PHY_EDGE_ROW_51_Left_323
*17299 PHY_EDGE_ROW_51_Right_51
*17300 PHY_EDGE_ROW_52_Left_324
*17301 PHY_EDGE_ROW_52_Right_52
*17302 PHY_EDGE_ROW_53_Left_325
*17303 PHY_EDGE_ROW_53_Right_53
*17304 PHY_EDGE_ROW_54_Left_326
*17305 PHY_EDGE_ROW_54_Right_54
*17306 PHY_EDGE_ROW_55_Left_327
*17307 PHY_EDGE_ROW_55_Right_55
*17308 PHY_EDGE_ROW_56_Left_328
*17309 PHY_EDGE_ROW_56_Right_56
*17310 PHY_EDGE_ROW_57_Left_329
*17311 PHY_EDGE_ROW_57_Right_57
*17312 PHY_EDGE_ROW_58_Left_330
*17313 PHY_EDGE_ROW_58_Right_58
*17314 PHY_EDGE_ROW_59_Left_331
*17315 PHY_EDGE_ROW_59_Right_59
*17316 PHY_EDGE_ROW_5_Left_277
*17317 PHY_EDGE_ROW_5_Right_5
*17318 PHY_EDGE_ROW_60_Left_332
*17319 PHY_EDGE_ROW_60_Right_60
*17320 PHY_EDGE_ROW_61_Left_333
*17321 PHY_EDGE_ROW_61_Right_61
*17322 PHY_EDGE_ROW_62_Left_334
*17323 PHY_EDGE_ROW_62_Right_62
*17324 PHY_EDGE_ROW_63_Left_335
*17325 PHY_EDGE_ROW_63_Right_63
*17326 PHY_EDGE_ROW_64_Left_336
*17327 PHY_EDGE_ROW_64_Right_64
*17328 PHY_EDGE_ROW_65_Left_337
*17329 PHY_EDGE_ROW_65_Right_65
*17330 PHY_EDGE_ROW_66_Left_338
*17331 PHY_EDGE_ROW_66_Right_66
*17332 PHY_EDGE_ROW_67_Left_339
*17333 PHY_EDGE_ROW_67_Right_67
*17334 PHY_EDGE_ROW_68_Left_340
*17335 PHY_EDGE_ROW_68_Right_68
*17336 PHY_EDGE_ROW_69_Left_341
*17337 PHY_EDGE_ROW_69_Right_69
*17338 PHY_EDGE_ROW_6_Left_278
*17339 PHY_EDGE_ROW_6_Right_6
*17340 PHY_EDGE_ROW_70_Left_342
*17341 PHY_EDGE_ROW_70_Right_70
*17342 PHY_EDGE_ROW_71_Left_343
*17343 PHY_EDGE_ROW_71_Right_71
*17344 PHY_EDGE_ROW_72_Left_344
*17345 PHY_EDGE_ROW_72_Right_72
*17346 PHY_EDGE_ROW_73_Left_345
*17347 PHY_EDGE_ROW_73_Right_73
*17348 PHY_EDGE_ROW_74_Left_346
*17349 PHY_EDGE_ROW_74_Right_74
*17350 PHY_EDGE_ROW_75_Left_347
*17351 PHY_EDGE_ROW_75_Right_75
*17352 PHY_EDGE_ROW_76_Left_348
*17353 PHY_EDGE_ROW_76_Right_76
*17354 PHY_EDGE_ROW_77_Left_349
*17355 PHY_EDGE_ROW_77_Right_77
*17356 PHY_EDGE_ROW_78_Left_350
*17357 PHY_EDGE_ROW_78_Right_78
*17358 PHY_EDGE_ROW_79_Left_351
*17359 PHY_EDGE_ROW_79_Right_79
*17360 PHY_EDGE_ROW_7_Left_279
*17361 PHY_EDGE_ROW_7_Right_7
*17362 PHY_EDGE_ROW_80_Left_352
*17363 PHY_EDGE_ROW_80_Right_80
*17364 PHY_EDGE_ROW_81_Left_353
*17365 PHY_EDGE_ROW_81_Right_81
*17366 PHY_EDGE_ROW_82_Left_354
*17367 PHY_EDGE_ROW_82_Right_82
*17368 PHY_EDGE_ROW_83_Left_355
*17369 PHY_EDGE_ROW_83_Right_83
*17370 PHY_EDGE_ROW_84_Left_356
*17371 PHY_EDGE_ROW_84_Right_84
*17372 PHY_EDGE_ROW_85_Left_357
*17373 PHY_EDGE_ROW_85_Right_85
*17374 PHY_EDGE_ROW_86_Left_358
*17375 PHY_EDGE_ROW_86_Right_86
*17376 PHY_EDGE_ROW_87_Left_359
*17377 PHY_EDGE_ROW_87_Right_87
*17378 PHY_EDGE_ROW_88_Left_360
*17379 PHY_EDGE_ROW_88_Right_88
*17380 PHY_EDGE_ROW_89_Left_361
*17381 PHY_EDGE_ROW_89_Right_89
*17382 PHY_EDGE_ROW_8_Left_280
*17383 PHY_EDGE_ROW_8_Right_8
*17384 PHY_EDGE_ROW_90_Left_362
*17385 PHY_EDGE_ROW_90_Right_90
*17386 PHY_EDGE_ROW_91_Left_363
*17387 PHY_EDGE_ROW_91_Right_91
*17388 PHY_EDGE_ROW_92_Left_364
*17389 PHY_EDGE_ROW_92_Right_92
*17390 PHY_EDGE_ROW_93_Left_365
*17391 PHY_EDGE_ROW_93_Right_93
*17392 PHY_EDGE_ROW_94_Left_366
*17393 PHY_EDGE_ROW_94_Right_94
*17394 PHY_EDGE_ROW_95_Left_367
*17395 PHY_EDGE_ROW_95_Right_95
*17396 PHY_EDGE_ROW_96_Left_368
*17397 PHY_EDGE_ROW_96_Right_96
*17398 PHY_EDGE_ROW_97_Left_369
*17399 PHY_EDGE_ROW_97_Right_97
*17400 PHY_EDGE_ROW_98_Left_370
*17401 PHY_EDGE_ROW_98_Right_98
*17402 PHY_EDGE_ROW_99_Left_371
*17403 PHY_EDGE_ROW_99_Right_99
*17404 PHY_EDGE_ROW_9_Left_281
*17405 PHY_EDGE_ROW_9_Right_9
*17406 TAP_TAPCELL_ROW_0_544
*17407 TAP_TAPCELL_ROW_0_545
*17408 TAP_TAPCELL_ROW_0_546
*17409 TAP_TAPCELL_ROW_0_547
*17410 TAP_TAPCELL_ROW_0_548
*17411 TAP_TAPCELL_ROW_0_549
*17412 TAP_TAPCELL_ROW_0_550
*17413 TAP_TAPCELL_ROW_0_551
*17414 TAP_TAPCELL_ROW_0_552
*17415 TAP_TAPCELL_ROW_0_553
*17416 TAP_TAPCELL_ROW_0_554
*17417 TAP_TAPCELL_ROW_0_555
*17418 TAP_TAPCELL_ROW_0_556
*17419 TAP_TAPCELL_ROW_0_557
*17420 TAP_TAPCELL_ROW_0_558
*17421 TAP_TAPCELL_ROW_0_559
*17422 TAP_TAPCELL_ROW_0_560
*17423 TAP_TAPCELL_ROW_0_561
*17424 TAP_TAPCELL_ROW_0_562
*17425 TAP_TAPCELL_ROW_0_563
*17426 TAP_TAPCELL_ROW_0_564
*17427 TAP_TAPCELL_ROW_0_565
*17428 TAP_TAPCELL_ROW_0_566
*17429 TAP_TAPCELL_ROW_0_567
*17430 TAP_TAPCELL_ROW_0_568
*17431 TAP_TAPCELL_ROW_0_569
*17432 TAP_TAPCELL_ROW_0_570
*17433 TAP_TAPCELL_ROW_0_571
*17434 TAP_TAPCELL_ROW_0_572
*17435 TAP_TAPCELL_ROW_0_573
*17436 TAP_TAPCELL_ROW_0_574
*17437 TAP_TAPCELL_ROW_0_575
*17438 TAP_TAPCELL_ROW_0_576
*17439 TAP_TAPCELL_ROW_0_577
*17440 TAP_TAPCELL_ROW_0_578
*17441 TAP_TAPCELL_ROW_0_579
*17442 TAP_TAPCELL_ROW_0_580
*17443 TAP_TAPCELL_ROW_0_581
*17444 TAP_TAPCELL_ROW_0_582
*17445 TAP_TAPCELL_ROW_0_583
*17446 TAP_TAPCELL_ROW_0_584
*17447 TAP_TAPCELL_ROW_0_585
*17448 TAP_TAPCELL_ROW_0_586
*17449 TAP_TAPCELL_ROW_0_587
*17450 TAP_TAPCELL_ROW_0_588
*17451 TAP_TAPCELL_ROW_0_589
*17452 TAP_TAPCELL_ROW_0_590
*17453 TAP_TAPCELL_ROW_0_591
*17454 TAP_TAPCELL_ROW_0_592
*17455 TAP_TAPCELL_ROW_0_593
*17456 TAP_TAPCELL_ROW_0_594
*17457 TAP_TAPCELL_ROW_0_595
*17458 TAP_TAPCELL_ROW_0_596
*17459 TAP_TAPCELL_ROW_0_597
*17460 TAP_TAPCELL_ROW_0_598
*17461 TAP_TAPCELL_ROW_0_599
*17462 TAP_TAPCELL_ROW_100_3322
*17463 TAP_TAPCELL_ROW_100_3323
*17464 TAP_TAPCELL_ROW_100_3324
*17465 TAP_TAPCELL_ROW_100_3325
*17466 TAP_TAPCELL_ROW_100_3326
*17467 TAP_TAPCELL_ROW_100_3327
*17468 TAP_TAPCELL_ROW_100_3328
*17469 TAP_TAPCELL_ROW_100_3329
*17470 TAP_TAPCELL_ROW_100_3330
*17471 TAP_TAPCELL_ROW_100_3331
*17472 TAP_TAPCELL_ROW_100_3332
*17473 TAP_TAPCELL_ROW_100_3333
*17474 TAP_TAPCELL_ROW_100_3334
*17475 TAP_TAPCELL_ROW_100_3335
*17476 TAP_TAPCELL_ROW_100_3336
*17477 TAP_TAPCELL_ROW_100_3337
*17478 TAP_TAPCELL_ROW_100_3338
*17479 TAP_TAPCELL_ROW_100_3339
*17480 TAP_TAPCELL_ROW_100_3340
*17481 TAP_TAPCELL_ROW_100_3341
*17482 TAP_TAPCELL_ROW_100_3342
*17483 TAP_TAPCELL_ROW_100_3343
*17484 TAP_TAPCELL_ROW_100_3344
*17485 TAP_TAPCELL_ROW_100_3345
*17486 TAP_TAPCELL_ROW_100_3346
*17487 TAP_TAPCELL_ROW_100_3347
*17488 TAP_TAPCELL_ROW_100_3348
*17489 TAP_TAPCELL_ROW_100_3349
*17490 TAP_TAPCELL_ROW_101_3350
*17491 TAP_TAPCELL_ROW_101_3351
*17492 TAP_TAPCELL_ROW_101_3352
*17493 TAP_TAPCELL_ROW_101_3353
*17494 TAP_TAPCELL_ROW_101_3354
*17495 TAP_TAPCELL_ROW_101_3355
*17496 TAP_TAPCELL_ROW_101_3356
*17497 TAP_TAPCELL_ROW_101_3357
*17498 TAP_TAPCELL_ROW_101_3358
*17499 TAP_TAPCELL_ROW_101_3359
*17500 TAP_TAPCELL_ROW_101_3360
*17501 TAP_TAPCELL_ROW_101_3361
*17502 TAP_TAPCELL_ROW_101_3362
*17503 TAP_TAPCELL_ROW_101_3363
*17504 TAP_TAPCELL_ROW_101_3364
*17505 TAP_TAPCELL_ROW_101_3365
*17506 TAP_TAPCELL_ROW_101_3366
*17507 TAP_TAPCELL_ROW_101_3367
*17508 TAP_TAPCELL_ROW_101_3368
*17509 TAP_TAPCELL_ROW_101_3369
*17510 TAP_TAPCELL_ROW_101_3370
*17511 TAP_TAPCELL_ROW_101_3371
*17512 TAP_TAPCELL_ROW_101_3372
*17513 TAP_TAPCELL_ROW_101_3373
*17514 TAP_TAPCELL_ROW_101_3374
*17515 TAP_TAPCELL_ROW_101_3375
*17516 TAP_TAPCELL_ROW_101_3376
*17517 TAP_TAPCELL_ROW_102_3377
*17518 TAP_TAPCELL_ROW_102_3378
*17519 TAP_TAPCELL_ROW_102_3379
*17520 TAP_TAPCELL_ROW_102_3380
*17521 TAP_TAPCELL_ROW_102_3381
*17522 TAP_TAPCELL_ROW_102_3382
*17523 TAP_TAPCELL_ROW_102_3383
*17524 TAP_TAPCELL_ROW_102_3384
*17525 TAP_TAPCELL_ROW_102_3385
*17526 TAP_TAPCELL_ROW_102_3386
*17527 TAP_TAPCELL_ROW_102_3387
*17528 TAP_TAPCELL_ROW_102_3388
*17529 TAP_TAPCELL_ROW_102_3389
*17530 TAP_TAPCELL_ROW_102_3390
*17531 TAP_TAPCELL_ROW_102_3391
*17532 TAP_TAPCELL_ROW_102_3392
*17533 TAP_TAPCELL_ROW_102_3393
*17534 TAP_TAPCELL_ROW_102_3394
*17535 TAP_TAPCELL_ROW_102_3395
*17536 TAP_TAPCELL_ROW_102_3396
*17537 TAP_TAPCELL_ROW_102_3397
*17538 TAP_TAPCELL_ROW_102_3398
*17539 TAP_TAPCELL_ROW_102_3399
*17540 TAP_TAPCELL_ROW_102_3400
*17541 TAP_TAPCELL_ROW_102_3401
*17542 TAP_TAPCELL_ROW_102_3402
*17543 TAP_TAPCELL_ROW_102_3403
*17544 TAP_TAPCELL_ROW_102_3404
*17545 TAP_TAPCELL_ROW_103_3405
*17546 TAP_TAPCELL_ROW_103_3406
*17547 TAP_TAPCELL_ROW_103_3407
*17548 TAP_TAPCELL_ROW_103_3408
*17549 TAP_TAPCELL_ROW_103_3409
*17550 TAP_TAPCELL_ROW_103_3410
*17551 TAP_TAPCELL_ROW_103_3411
*17552 TAP_TAPCELL_ROW_103_3412
*17553 TAP_TAPCELL_ROW_103_3413
*17554 TAP_TAPCELL_ROW_103_3414
*17555 TAP_TAPCELL_ROW_103_3415
*17556 TAP_TAPCELL_ROW_103_3416
*17557 TAP_TAPCELL_ROW_103_3417
*17558 TAP_TAPCELL_ROW_103_3418
*17559 TAP_TAPCELL_ROW_103_3419
*17560 TAP_TAPCELL_ROW_103_3420
*17561 TAP_TAPCELL_ROW_103_3421
*17562 TAP_TAPCELL_ROW_103_3422
*17563 TAP_TAPCELL_ROW_103_3423
*17564 TAP_TAPCELL_ROW_103_3424
*17565 TAP_TAPCELL_ROW_103_3425
*17566 TAP_TAPCELL_ROW_103_3426
*17567 TAP_TAPCELL_ROW_103_3427
*17568 TAP_TAPCELL_ROW_103_3428
*17569 TAP_TAPCELL_ROW_103_3429
*17570 TAP_TAPCELL_ROW_103_3430
*17571 TAP_TAPCELL_ROW_103_3431
*17572 TAP_TAPCELL_ROW_104_3432
*17573 TAP_TAPCELL_ROW_104_3433
*17574 TAP_TAPCELL_ROW_104_3434
*17575 TAP_TAPCELL_ROW_104_3435
*17576 TAP_TAPCELL_ROW_104_3436
*17577 TAP_TAPCELL_ROW_104_3437
*17578 TAP_TAPCELL_ROW_104_3438
*17579 TAP_TAPCELL_ROW_104_3439
*17580 TAP_TAPCELL_ROW_104_3440
*17581 TAP_TAPCELL_ROW_104_3441
*17582 TAP_TAPCELL_ROW_104_3442
*17583 TAP_TAPCELL_ROW_104_3443
*17584 TAP_TAPCELL_ROW_104_3444
*17585 TAP_TAPCELL_ROW_104_3445
*17586 TAP_TAPCELL_ROW_104_3446
*17587 TAP_TAPCELL_ROW_104_3447
*17588 TAP_TAPCELL_ROW_104_3448
*17589 TAP_TAPCELL_ROW_104_3449
*17590 TAP_TAPCELL_ROW_104_3450
*17591 TAP_TAPCELL_ROW_104_3451
*17592 TAP_TAPCELL_ROW_104_3452
*17593 TAP_TAPCELL_ROW_104_3453
*17594 TAP_TAPCELL_ROW_104_3454
*17595 TAP_TAPCELL_ROW_104_3455
*17596 TAP_TAPCELL_ROW_104_3456
*17597 TAP_TAPCELL_ROW_104_3457
*17598 TAP_TAPCELL_ROW_104_3458
*17599 TAP_TAPCELL_ROW_104_3459
*17600 TAP_TAPCELL_ROW_105_3460
*17601 TAP_TAPCELL_ROW_105_3461
*17602 TAP_TAPCELL_ROW_105_3462
*17603 TAP_TAPCELL_ROW_105_3463
*17604 TAP_TAPCELL_ROW_105_3464
*17605 TAP_TAPCELL_ROW_105_3465
*17606 TAP_TAPCELL_ROW_105_3466
*17607 TAP_TAPCELL_ROW_105_3467
*17608 TAP_TAPCELL_ROW_105_3468
*17609 TAP_TAPCELL_ROW_105_3469
*17610 TAP_TAPCELL_ROW_105_3470
*17611 TAP_TAPCELL_ROW_105_3471
*17612 TAP_TAPCELL_ROW_105_3472
*17613 TAP_TAPCELL_ROW_105_3473
*17614 TAP_TAPCELL_ROW_105_3474
*17615 TAP_TAPCELL_ROW_105_3475
*17616 TAP_TAPCELL_ROW_105_3476
*17617 TAP_TAPCELL_ROW_105_3477
*17618 TAP_TAPCELL_ROW_105_3478
*17619 TAP_TAPCELL_ROW_105_3479
*17620 TAP_TAPCELL_ROW_105_3480
*17621 TAP_TAPCELL_ROW_105_3481
*17622 TAP_TAPCELL_ROW_105_3482
*17623 TAP_TAPCELL_ROW_105_3483
*17624 TAP_TAPCELL_ROW_105_3484
*17625 TAP_TAPCELL_ROW_105_3485
*17626 TAP_TAPCELL_ROW_105_3486
*17627 TAP_TAPCELL_ROW_106_3487
*17628 TAP_TAPCELL_ROW_106_3488
*17629 TAP_TAPCELL_ROW_106_3489
*17630 TAP_TAPCELL_ROW_106_3490
*17631 TAP_TAPCELL_ROW_106_3491
*17632 TAP_TAPCELL_ROW_106_3492
*17633 TAP_TAPCELL_ROW_106_3493
*17634 TAP_TAPCELL_ROW_106_3494
*17635 TAP_TAPCELL_ROW_106_3495
*17636 TAP_TAPCELL_ROW_106_3496
*17637 TAP_TAPCELL_ROW_106_3497
*17638 TAP_TAPCELL_ROW_106_3498
*17639 TAP_TAPCELL_ROW_106_3499
*17640 TAP_TAPCELL_ROW_106_3500
*17641 TAP_TAPCELL_ROW_106_3501
*17642 TAP_TAPCELL_ROW_106_3502
*17643 TAP_TAPCELL_ROW_106_3503
*17644 TAP_TAPCELL_ROW_106_3504
*17645 TAP_TAPCELL_ROW_106_3505
*17646 TAP_TAPCELL_ROW_106_3506
*17647 TAP_TAPCELL_ROW_106_3507
*17648 TAP_TAPCELL_ROW_106_3508
*17649 TAP_TAPCELL_ROW_106_3509
*17650 TAP_TAPCELL_ROW_106_3510
*17651 TAP_TAPCELL_ROW_106_3511
*17652 TAP_TAPCELL_ROW_106_3512
*17653 TAP_TAPCELL_ROW_106_3513
*17654 TAP_TAPCELL_ROW_106_3514
*17655 TAP_TAPCELL_ROW_107_3515
*17656 TAP_TAPCELL_ROW_107_3516
*17657 TAP_TAPCELL_ROW_107_3517
*17658 TAP_TAPCELL_ROW_107_3518
*17659 TAP_TAPCELL_ROW_107_3519
*17660 TAP_TAPCELL_ROW_107_3520
*17661 TAP_TAPCELL_ROW_107_3521
*17662 TAP_TAPCELL_ROW_107_3522
*17663 TAP_TAPCELL_ROW_107_3523
*17664 TAP_TAPCELL_ROW_107_3524
*17665 TAP_TAPCELL_ROW_107_3525
*17666 TAP_TAPCELL_ROW_107_3526
*17667 TAP_TAPCELL_ROW_107_3527
*17668 TAP_TAPCELL_ROW_107_3528
*17669 TAP_TAPCELL_ROW_107_3529
*17670 TAP_TAPCELL_ROW_107_3530
*17671 TAP_TAPCELL_ROW_107_3531
*17672 TAP_TAPCELL_ROW_107_3532
*17673 TAP_TAPCELL_ROW_107_3533
*17674 TAP_TAPCELL_ROW_107_3534
*17675 TAP_TAPCELL_ROW_107_3535
*17676 TAP_TAPCELL_ROW_107_3536
*17677 TAP_TAPCELL_ROW_107_3537
*17678 TAP_TAPCELL_ROW_107_3538
*17679 TAP_TAPCELL_ROW_107_3539
*17680 TAP_TAPCELL_ROW_107_3540
*17681 TAP_TAPCELL_ROW_107_3541
*17682 TAP_TAPCELL_ROW_108_3542
*17683 TAP_TAPCELL_ROW_108_3543
*17684 TAP_TAPCELL_ROW_108_3544
*17685 TAP_TAPCELL_ROW_108_3545
*17686 TAP_TAPCELL_ROW_108_3546
*17687 TAP_TAPCELL_ROW_108_3547
*17688 TAP_TAPCELL_ROW_108_3548
*17689 TAP_TAPCELL_ROW_108_3549
*17690 TAP_TAPCELL_ROW_108_3550
*17691 TAP_TAPCELL_ROW_108_3551
*17692 TAP_TAPCELL_ROW_108_3552
*17693 TAP_TAPCELL_ROW_108_3553
*17694 TAP_TAPCELL_ROW_108_3554
*17695 TAP_TAPCELL_ROW_108_3555
*17696 TAP_TAPCELL_ROW_108_3556
*17697 TAP_TAPCELL_ROW_108_3557
*17698 TAP_TAPCELL_ROW_108_3558
*17699 TAP_TAPCELL_ROW_108_3559
*17700 TAP_TAPCELL_ROW_108_3560
*17701 TAP_TAPCELL_ROW_108_3561
*17702 TAP_TAPCELL_ROW_108_3562
*17703 TAP_TAPCELL_ROW_108_3563
*17704 TAP_TAPCELL_ROW_108_3564
*17705 TAP_TAPCELL_ROW_108_3565
*17706 TAP_TAPCELL_ROW_108_3566
*17707 TAP_TAPCELL_ROW_108_3567
*17708 TAP_TAPCELL_ROW_108_3568
*17709 TAP_TAPCELL_ROW_108_3569
*17710 TAP_TAPCELL_ROW_109_3570
*17711 TAP_TAPCELL_ROW_109_3571
*17712 TAP_TAPCELL_ROW_109_3572
*17713 TAP_TAPCELL_ROW_109_3573
*17714 TAP_TAPCELL_ROW_109_3574
*17715 TAP_TAPCELL_ROW_109_3575
*17716 TAP_TAPCELL_ROW_109_3576
*17717 TAP_TAPCELL_ROW_109_3577
*17718 TAP_TAPCELL_ROW_109_3578
*17719 TAP_TAPCELL_ROW_109_3579
*17720 TAP_TAPCELL_ROW_109_3580
*17721 TAP_TAPCELL_ROW_109_3581
*17722 TAP_TAPCELL_ROW_109_3582
*17723 TAP_TAPCELL_ROW_109_3583
*17724 TAP_TAPCELL_ROW_109_3584
*17725 TAP_TAPCELL_ROW_109_3585
*17726 TAP_TAPCELL_ROW_109_3586
*17727 TAP_TAPCELL_ROW_109_3587
*17728 TAP_TAPCELL_ROW_109_3588
*17729 TAP_TAPCELL_ROW_109_3589
*17730 TAP_TAPCELL_ROW_109_3590
*17731 TAP_TAPCELL_ROW_109_3591
*17732 TAP_TAPCELL_ROW_109_3592
*17733 TAP_TAPCELL_ROW_109_3593
*17734 TAP_TAPCELL_ROW_109_3594
*17735 TAP_TAPCELL_ROW_109_3595
*17736 TAP_TAPCELL_ROW_109_3596
*17737 TAP_TAPCELL_ROW_10_847
*17738 TAP_TAPCELL_ROW_10_848
*17739 TAP_TAPCELL_ROW_10_849
*17740 TAP_TAPCELL_ROW_10_850
*17741 TAP_TAPCELL_ROW_10_851
*17742 TAP_TAPCELL_ROW_10_852
*17743 TAP_TAPCELL_ROW_10_853
*17744 TAP_TAPCELL_ROW_10_854
*17745 TAP_TAPCELL_ROW_10_855
*17746 TAP_TAPCELL_ROW_10_856
*17747 TAP_TAPCELL_ROW_10_857
*17748 TAP_TAPCELL_ROW_10_858
*17749 TAP_TAPCELL_ROW_10_859
*17750 TAP_TAPCELL_ROW_10_860
*17751 TAP_TAPCELL_ROW_10_861
*17752 TAP_TAPCELL_ROW_10_862
*17753 TAP_TAPCELL_ROW_10_863
*17754 TAP_TAPCELL_ROW_10_864
*17755 TAP_TAPCELL_ROW_10_865
*17756 TAP_TAPCELL_ROW_10_866
*17757 TAP_TAPCELL_ROW_10_867
*17758 TAP_TAPCELL_ROW_10_868
*17759 TAP_TAPCELL_ROW_10_869
*17760 TAP_TAPCELL_ROW_10_870
*17761 TAP_TAPCELL_ROW_10_871
*17762 TAP_TAPCELL_ROW_10_872
*17763 TAP_TAPCELL_ROW_10_873
*17764 TAP_TAPCELL_ROW_10_874
*17765 TAP_TAPCELL_ROW_110_3597
*17766 TAP_TAPCELL_ROW_110_3598
*17767 TAP_TAPCELL_ROW_110_3599
*17768 TAP_TAPCELL_ROW_110_3600
*17769 TAP_TAPCELL_ROW_110_3601
*17770 TAP_TAPCELL_ROW_110_3602
*17771 TAP_TAPCELL_ROW_110_3603
*17772 TAP_TAPCELL_ROW_110_3604
*17773 TAP_TAPCELL_ROW_110_3605
*17774 TAP_TAPCELL_ROW_110_3606
*17775 TAP_TAPCELL_ROW_110_3607
*17776 TAP_TAPCELL_ROW_110_3608
*17777 TAP_TAPCELL_ROW_110_3609
*17778 TAP_TAPCELL_ROW_110_3610
*17779 TAP_TAPCELL_ROW_110_3611
*17780 TAP_TAPCELL_ROW_110_3612
*17781 TAP_TAPCELL_ROW_110_3613
*17782 TAP_TAPCELL_ROW_110_3614
*17783 TAP_TAPCELL_ROW_110_3615
*17784 TAP_TAPCELL_ROW_110_3616
*17785 TAP_TAPCELL_ROW_110_3617
*17786 TAP_TAPCELL_ROW_110_3618
*17787 TAP_TAPCELL_ROW_110_3619
*17788 TAP_TAPCELL_ROW_110_3620
*17789 TAP_TAPCELL_ROW_110_3621
*17790 TAP_TAPCELL_ROW_110_3622
*17791 TAP_TAPCELL_ROW_110_3623
*17792 TAP_TAPCELL_ROW_110_3624
*17793 TAP_TAPCELL_ROW_111_3625
*17794 TAP_TAPCELL_ROW_111_3626
*17795 TAP_TAPCELL_ROW_111_3627
*17796 TAP_TAPCELL_ROW_111_3628
*17797 TAP_TAPCELL_ROW_111_3629
*17798 TAP_TAPCELL_ROW_111_3630
*17799 TAP_TAPCELL_ROW_111_3631
*17800 TAP_TAPCELL_ROW_111_3632
*17801 TAP_TAPCELL_ROW_111_3633
*17802 TAP_TAPCELL_ROW_111_3634
*17803 TAP_TAPCELL_ROW_111_3635
*17804 TAP_TAPCELL_ROW_111_3636
*17805 TAP_TAPCELL_ROW_111_3637
*17806 TAP_TAPCELL_ROW_111_3638
*17807 TAP_TAPCELL_ROW_111_3639
*17808 TAP_TAPCELL_ROW_111_3640
*17809 TAP_TAPCELL_ROW_111_3641
*17810 TAP_TAPCELL_ROW_111_3642
*17811 TAP_TAPCELL_ROW_111_3643
*17812 TAP_TAPCELL_ROW_111_3644
*17813 TAP_TAPCELL_ROW_111_3645
*17814 TAP_TAPCELL_ROW_111_3646
*17815 TAP_TAPCELL_ROW_111_3647
*17816 TAP_TAPCELL_ROW_111_3648
*17817 TAP_TAPCELL_ROW_111_3649
*17818 TAP_TAPCELL_ROW_111_3650
*17819 TAP_TAPCELL_ROW_111_3651
*17820 TAP_TAPCELL_ROW_112_3652
*17821 TAP_TAPCELL_ROW_112_3653
*17822 TAP_TAPCELL_ROW_112_3654
*17823 TAP_TAPCELL_ROW_112_3655
*17824 TAP_TAPCELL_ROW_112_3656
*17825 TAP_TAPCELL_ROW_112_3657
*17826 TAP_TAPCELL_ROW_112_3658
*17827 TAP_TAPCELL_ROW_112_3659
*17828 TAP_TAPCELL_ROW_112_3660
*17829 TAP_TAPCELL_ROW_112_3661
*17830 TAP_TAPCELL_ROW_112_3662
*17831 TAP_TAPCELL_ROW_112_3663
*17832 TAP_TAPCELL_ROW_112_3664
*17833 TAP_TAPCELL_ROW_112_3665
*17834 TAP_TAPCELL_ROW_112_3666
*17835 TAP_TAPCELL_ROW_112_3667
*17836 TAP_TAPCELL_ROW_112_3668
*17837 TAP_TAPCELL_ROW_112_3669
*17838 TAP_TAPCELL_ROW_112_3670
*17839 TAP_TAPCELL_ROW_112_3671
*17840 TAP_TAPCELL_ROW_112_3672
*17841 TAP_TAPCELL_ROW_112_3673
*17842 TAP_TAPCELL_ROW_112_3674
*17843 TAP_TAPCELL_ROW_112_3675
*17844 TAP_TAPCELL_ROW_112_3676
*17845 TAP_TAPCELL_ROW_112_3677
*17846 TAP_TAPCELL_ROW_112_3678
*17847 TAP_TAPCELL_ROW_112_3679
*17848 TAP_TAPCELL_ROW_113_3680
*17849 TAP_TAPCELL_ROW_113_3681
*17850 TAP_TAPCELL_ROW_113_3682
*17851 TAP_TAPCELL_ROW_113_3683
*17852 TAP_TAPCELL_ROW_113_3684
*17853 TAP_TAPCELL_ROW_113_3685
*17854 TAP_TAPCELL_ROW_113_3686
*17855 TAP_TAPCELL_ROW_113_3687
*17856 TAP_TAPCELL_ROW_113_3688
*17857 TAP_TAPCELL_ROW_113_3689
*17858 TAP_TAPCELL_ROW_113_3690
*17859 TAP_TAPCELL_ROW_113_3691
*17860 TAP_TAPCELL_ROW_113_3692
*17861 TAP_TAPCELL_ROW_113_3693
*17862 TAP_TAPCELL_ROW_113_3694
*17863 TAP_TAPCELL_ROW_113_3695
*17864 TAP_TAPCELL_ROW_113_3696
*17865 TAP_TAPCELL_ROW_113_3697
*17866 TAP_TAPCELL_ROW_113_3698
*17867 TAP_TAPCELL_ROW_113_3699
*17868 TAP_TAPCELL_ROW_113_3700
*17869 TAP_TAPCELL_ROW_113_3701
*17870 TAP_TAPCELL_ROW_113_3702
*17871 TAP_TAPCELL_ROW_113_3703
*17872 TAP_TAPCELL_ROW_113_3704
*17873 TAP_TAPCELL_ROW_113_3705
*17874 TAP_TAPCELL_ROW_113_3706
*17875 TAP_TAPCELL_ROW_114_3707
*17876 TAP_TAPCELL_ROW_114_3708
*17877 TAP_TAPCELL_ROW_114_3709
*17878 TAP_TAPCELL_ROW_114_3710
*17879 TAP_TAPCELL_ROW_114_3711
*17880 TAP_TAPCELL_ROW_114_3712
*17881 TAP_TAPCELL_ROW_114_3713
*17882 TAP_TAPCELL_ROW_114_3714
*17883 TAP_TAPCELL_ROW_114_3715
*17884 TAP_TAPCELL_ROW_114_3716
*17885 TAP_TAPCELL_ROW_114_3717
*17886 TAP_TAPCELL_ROW_114_3718
*17887 TAP_TAPCELL_ROW_114_3719
*17888 TAP_TAPCELL_ROW_114_3720
*17889 TAP_TAPCELL_ROW_114_3721
*17890 TAP_TAPCELL_ROW_114_3722
*17891 TAP_TAPCELL_ROW_114_3723
*17892 TAP_TAPCELL_ROW_114_3724
*17893 TAP_TAPCELL_ROW_114_3725
*17894 TAP_TAPCELL_ROW_114_3726
*17895 TAP_TAPCELL_ROW_114_3727
*17896 TAP_TAPCELL_ROW_114_3728
*17897 TAP_TAPCELL_ROW_114_3729
*17898 TAP_TAPCELL_ROW_114_3730
*17899 TAP_TAPCELL_ROW_114_3731
*17900 TAP_TAPCELL_ROW_114_3732
*17901 TAP_TAPCELL_ROW_114_3733
*17902 TAP_TAPCELL_ROW_114_3734
*17903 TAP_TAPCELL_ROW_115_3735
*17904 TAP_TAPCELL_ROW_115_3736
*17905 TAP_TAPCELL_ROW_115_3737
*17906 TAP_TAPCELL_ROW_115_3738
*17907 TAP_TAPCELL_ROW_115_3739
*17908 TAP_TAPCELL_ROW_115_3740
*17909 TAP_TAPCELL_ROW_115_3741
*17910 TAP_TAPCELL_ROW_115_3742
*17911 TAP_TAPCELL_ROW_115_3743
*17912 TAP_TAPCELL_ROW_115_3744
*17913 TAP_TAPCELL_ROW_115_3745
*17914 TAP_TAPCELL_ROW_115_3746
*17915 TAP_TAPCELL_ROW_115_3747
*17916 TAP_TAPCELL_ROW_115_3748
*17917 TAP_TAPCELL_ROW_115_3749
*17918 TAP_TAPCELL_ROW_115_3750
*17919 TAP_TAPCELL_ROW_115_3751
*17920 TAP_TAPCELL_ROW_115_3752
*17921 TAP_TAPCELL_ROW_115_3753
*17922 TAP_TAPCELL_ROW_115_3754
*17923 TAP_TAPCELL_ROW_115_3755
*17924 TAP_TAPCELL_ROW_115_3756
*17925 TAP_TAPCELL_ROW_115_3757
*17926 TAP_TAPCELL_ROW_115_3758
*17927 TAP_TAPCELL_ROW_115_3759
*17928 TAP_TAPCELL_ROW_115_3760
*17929 TAP_TAPCELL_ROW_115_3761
*17930 TAP_TAPCELL_ROW_116_3762
*17931 TAP_TAPCELL_ROW_116_3763
*17932 TAP_TAPCELL_ROW_116_3764
*17933 TAP_TAPCELL_ROW_116_3765
*17934 TAP_TAPCELL_ROW_116_3766
*17935 TAP_TAPCELL_ROW_116_3767
*17936 TAP_TAPCELL_ROW_116_3768
*17937 TAP_TAPCELL_ROW_116_3769
*17938 TAP_TAPCELL_ROW_116_3770
*17939 TAP_TAPCELL_ROW_116_3771
*17940 TAP_TAPCELL_ROW_116_3772
*17941 TAP_TAPCELL_ROW_116_3773
*17942 TAP_TAPCELL_ROW_116_3774
*17943 TAP_TAPCELL_ROW_116_3775
*17944 TAP_TAPCELL_ROW_116_3776
*17945 TAP_TAPCELL_ROW_116_3777
*17946 TAP_TAPCELL_ROW_116_3778
*17947 TAP_TAPCELL_ROW_116_3779
*17948 TAP_TAPCELL_ROW_116_3780
*17949 TAP_TAPCELL_ROW_116_3781
*17950 TAP_TAPCELL_ROW_116_3782
*17951 TAP_TAPCELL_ROW_116_3783
*17952 TAP_TAPCELL_ROW_116_3784
*17953 TAP_TAPCELL_ROW_116_3785
*17954 TAP_TAPCELL_ROW_116_3786
*17955 TAP_TAPCELL_ROW_116_3787
*17956 TAP_TAPCELL_ROW_116_3788
*17957 TAP_TAPCELL_ROW_116_3789
*17958 TAP_TAPCELL_ROW_117_3790
*17959 TAP_TAPCELL_ROW_117_3791
*17960 TAP_TAPCELL_ROW_117_3792
*17961 TAP_TAPCELL_ROW_117_3793
*17962 TAP_TAPCELL_ROW_117_3794
*17963 TAP_TAPCELL_ROW_117_3795
*17964 TAP_TAPCELL_ROW_117_3796
*17965 TAP_TAPCELL_ROW_117_3797
*17966 TAP_TAPCELL_ROW_117_3798
*17967 TAP_TAPCELL_ROW_117_3799
*17968 TAP_TAPCELL_ROW_117_3800
*17969 TAP_TAPCELL_ROW_117_3801
*17970 TAP_TAPCELL_ROW_117_3802
*17971 TAP_TAPCELL_ROW_117_3803
*17972 TAP_TAPCELL_ROW_117_3804
*17973 TAP_TAPCELL_ROW_117_3805
*17974 TAP_TAPCELL_ROW_117_3806
*17975 TAP_TAPCELL_ROW_117_3807
*17976 TAP_TAPCELL_ROW_117_3808
*17977 TAP_TAPCELL_ROW_117_3809
*17978 TAP_TAPCELL_ROW_117_3810
*17979 TAP_TAPCELL_ROW_117_3811
*17980 TAP_TAPCELL_ROW_117_3812
*17981 TAP_TAPCELL_ROW_117_3813
*17982 TAP_TAPCELL_ROW_117_3814
*17983 TAP_TAPCELL_ROW_117_3815
*17984 TAP_TAPCELL_ROW_117_3816
*17985 TAP_TAPCELL_ROW_118_3817
*17986 TAP_TAPCELL_ROW_118_3818
*17987 TAP_TAPCELL_ROW_118_3819
*17988 TAP_TAPCELL_ROW_118_3820
*17989 TAP_TAPCELL_ROW_118_3821
*17990 TAP_TAPCELL_ROW_118_3822
*17991 TAP_TAPCELL_ROW_118_3823
*17992 TAP_TAPCELL_ROW_118_3824
*17993 TAP_TAPCELL_ROW_118_3825
*17994 TAP_TAPCELL_ROW_118_3826
*17995 TAP_TAPCELL_ROW_118_3827
*17996 TAP_TAPCELL_ROW_118_3828
*17997 TAP_TAPCELL_ROW_118_3829
*17998 TAP_TAPCELL_ROW_118_3830
*17999 TAP_TAPCELL_ROW_118_3831
*18000 TAP_TAPCELL_ROW_118_3832
*18001 TAP_TAPCELL_ROW_118_3833
*18002 TAP_TAPCELL_ROW_118_3834
*18003 TAP_TAPCELL_ROW_118_3835
*18004 TAP_TAPCELL_ROW_118_3836
*18005 TAP_TAPCELL_ROW_118_3837
*18006 TAP_TAPCELL_ROW_118_3838
*18007 TAP_TAPCELL_ROW_118_3839
*18008 TAP_TAPCELL_ROW_118_3840
*18009 TAP_TAPCELL_ROW_118_3841
*18010 TAP_TAPCELL_ROW_118_3842
*18011 TAP_TAPCELL_ROW_118_3843
*18012 TAP_TAPCELL_ROW_118_3844
*18013 TAP_TAPCELL_ROW_119_3845
*18014 TAP_TAPCELL_ROW_119_3846
*18015 TAP_TAPCELL_ROW_119_3847
*18016 TAP_TAPCELL_ROW_119_3848
*18017 TAP_TAPCELL_ROW_119_3849
*18018 TAP_TAPCELL_ROW_119_3850
*18019 TAP_TAPCELL_ROW_119_3851
*18020 TAP_TAPCELL_ROW_119_3852
*18021 TAP_TAPCELL_ROW_119_3853
*18022 TAP_TAPCELL_ROW_119_3854
*18023 TAP_TAPCELL_ROW_119_3855
*18024 TAP_TAPCELL_ROW_119_3856
*18025 TAP_TAPCELL_ROW_119_3857
*18026 TAP_TAPCELL_ROW_119_3858
*18027 TAP_TAPCELL_ROW_119_3859
*18028 TAP_TAPCELL_ROW_119_3860
*18029 TAP_TAPCELL_ROW_119_3861
*18030 TAP_TAPCELL_ROW_119_3862
*18031 TAP_TAPCELL_ROW_119_3863
*18032 TAP_TAPCELL_ROW_119_3864
*18033 TAP_TAPCELL_ROW_119_3865
*18034 TAP_TAPCELL_ROW_119_3866
*18035 TAP_TAPCELL_ROW_119_3867
*18036 TAP_TAPCELL_ROW_119_3868
*18037 TAP_TAPCELL_ROW_119_3869
*18038 TAP_TAPCELL_ROW_119_3870
*18039 TAP_TAPCELL_ROW_119_3871
*18040 TAP_TAPCELL_ROW_11_875
*18041 TAP_TAPCELL_ROW_11_876
*18042 TAP_TAPCELL_ROW_11_877
*18043 TAP_TAPCELL_ROW_11_878
*18044 TAP_TAPCELL_ROW_11_879
*18045 TAP_TAPCELL_ROW_11_880
*18046 TAP_TAPCELL_ROW_11_881
*18047 TAP_TAPCELL_ROW_11_882
*18048 TAP_TAPCELL_ROW_11_883
*18049 TAP_TAPCELL_ROW_11_884
*18050 TAP_TAPCELL_ROW_11_885
*18051 TAP_TAPCELL_ROW_11_886
*18052 TAP_TAPCELL_ROW_11_887
*18053 TAP_TAPCELL_ROW_11_888
*18054 TAP_TAPCELL_ROW_11_889
*18055 TAP_TAPCELL_ROW_11_890
*18056 TAP_TAPCELL_ROW_11_891
*18057 TAP_TAPCELL_ROW_11_892
*18058 TAP_TAPCELL_ROW_11_893
*18059 TAP_TAPCELL_ROW_11_894
*18060 TAP_TAPCELL_ROW_11_895
*18061 TAP_TAPCELL_ROW_11_896
*18062 TAP_TAPCELL_ROW_11_897
*18063 TAP_TAPCELL_ROW_11_898
*18064 TAP_TAPCELL_ROW_11_899
*18065 TAP_TAPCELL_ROW_11_900
*18066 TAP_TAPCELL_ROW_11_901
*18067 TAP_TAPCELL_ROW_120_3872
*18068 TAP_TAPCELL_ROW_120_3873
*18069 TAP_TAPCELL_ROW_120_3874
*18070 TAP_TAPCELL_ROW_120_3875
*18071 TAP_TAPCELL_ROW_120_3876
*18072 TAP_TAPCELL_ROW_120_3877
*18073 TAP_TAPCELL_ROW_120_3878
*18074 TAP_TAPCELL_ROW_120_3879
*18075 TAP_TAPCELL_ROW_120_3880
*18076 TAP_TAPCELL_ROW_120_3881
*18077 TAP_TAPCELL_ROW_120_3882
*18078 TAP_TAPCELL_ROW_120_3883
*18079 TAP_TAPCELL_ROW_120_3884
*18080 TAP_TAPCELL_ROW_120_3885
*18081 TAP_TAPCELL_ROW_120_3886
*18082 TAP_TAPCELL_ROW_120_3887
*18083 TAP_TAPCELL_ROW_120_3888
*18084 TAP_TAPCELL_ROW_120_3889
*18085 TAP_TAPCELL_ROW_120_3890
*18086 TAP_TAPCELL_ROW_120_3891
*18087 TAP_TAPCELL_ROW_120_3892
*18088 TAP_TAPCELL_ROW_120_3893
*18089 TAP_TAPCELL_ROW_120_3894
*18090 TAP_TAPCELL_ROW_120_3895
*18091 TAP_TAPCELL_ROW_120_3896
*18092 TAP_TAPCELL_ROW_120_3897
*18093 TAP_TAPCELL_ROW_120_3898
*18094 TAP_TAPCELL_ROW_120_3899
*18095 TAP_TAPCELL_ROW_121_3900
*18096 TAP_TAPCELL_ROW_121_3901
*18097 TAP_TAPCELL_ROW_121_3902
*18098 TAP_TAPCELL_ROW_121_3903
*18099 TAP_TAPCELL_ROW_121_3904
*18100 TAP_TAPCELL_ROW_121_3905
*18101 TAP_TAPCELL_ROW_121_3906
*18102 TAP_TAPCELL_ROW_121_3907
*18103 TAP_TAPCELL_ROW_121_3908
*18104 TAP_TAPCELL_ROW_121_3909
*18105 TAP_TAPCELL_ROW_121_3910
*18106 TAP_TAPCELL_ROW_121_3911
*18107 TAP_TAPCELL_ROW_121_3912
*18108 TAP_TAPCELL_ROW_121_3913
*18109 TAP_TAPCELL_ROW_121_3914
*18110 TAP_TAPCELL_ROW_121_3915
*18111 TAP_TAPCELL_ROW_121_3916
*18112 TAP_TAPCELL_ROW_121_3917
*18113 TAP_TAPCELL_ROW_121_3918
*18114 TAP_TAPCELL_ROW_121_3919
*18115 TAP_TAPCELL_ROW_121_3920
*18116 TAP_TAPCELL_ROW_121_3921
*18117 TAP_TAPCELL_ROW_121_3922
*18118 TAP_TAPCELL_ROW_121_3923
*18119 TAP_TAPCELL_ROW_121_3924
*18120 TAP_TAPCELL_ROW_121_3925
*18121 TAP_TAPCELL_ROW_121_3926
*18122 TAP_TAPCELL_ROW_122_3927
*18123 TAP_TAPCELL_ROW_122_3928
*18124 TAP_TAPCELL_ROW_122_3929
*18125 TAP_TAPCELL_ROW_122_3930
*18126 TAP_TAPCELL_ROW_122_3931
*18127 TAP_TAPCELL_ROW_122_3932
*18128 TAP_TAPCELL_ROW_122_3933
*18129 TAP_TAPCELL_ROW_122_3934
*18130 TAP_TAPCELL_ROW_122_3935
*18131 TAP_TAPCELL_ROW_122_3936
*18132 TAP_TAPCELL_ROW_122_3937
*18133 TAP_TAPCELL_ROW_122_3938
*18134 TAP_TAPCELL_ROW_122_3939
*18135 TAP_TAPCELL_ROW_122_3940
*18136 TAP_TAPCELL_ROW_122_3941
*18137 TAP_TAPCELL_ROW_122_3942
*18138 TAP_TAPCELL_ROW_122_3943
*18139 TAP_TAPCELL_ROW_122_3944
*18140 TAP_TAPCELL_ROW_122_3945
*18141 TAP_TAPCELL_ROW_122_3946
*18142 TAP_TAPCELL_ROW_122_3947
*18143 TAP_TAPCELL_ROW_122_3948
*18144 TAP_TAPCELL_ROW_122_3949
*18145 TAP_TAPCELL_ROW_122_3950
*18146 TAP_TAPCELL_ROW_122_3951
*18147 TAP_TAPCELL_ROW_122_3952
*18148 TAP_TAPCELL_ROW_122_3953
*18149 TAP_TAPCELL_ROW_122_3954
*18150 TAP_TAPCELL_ROW_123_3955
*18151 TAP_TAPCELL_ROW_123_3956
*18152 TAP_TAPCELL_ROW_123_3957
*18153 TAP_TAPCELL_ROW_123_3958
*18154 TAP_TAPCELL_ROW_123_3959
*18155 TAP_TAPCELL_ROW_123_3960
*18156 TAP_TAPCELL_ROW_123_3961
*18157 TAP_TAPCELL_ROW_123_3962
*18158 TAP_TAPCELL_ROW_123_3963
*18159 TAP_TAPCELL_ROW_123_3964
*18160 TAP_TAPCELL_ROW_123_3965
*18161 TAP_TAPCELL_ROW_123_3966
*18162 TAP_TAPCELL_ROW_123_3967
*18163 TAP_TAPCELL_ROW_123_3968
*18164 TAP_TAPCELL_ROW_123_3969
*18165 TAP_TAPCELL_ROW_123_3970
*18166 TAP_TAPCELL_ROW_123_3971
*18167 TAP_TAPCELL_ROW_123_3972
*18168 TAP_TAPCELL_ROW_123_3973
*18169 TAP_TAPCELL_ROW_123_3974
*18170 TAP_TAPCELL_ROW_123_3975
*18171 TAP_TAPCELL_ROW_123_3976
*18172 TAP_TAPCELL_ROW_123_3977
*18173 TAP_TAPCELL_ROW_123_3978
*18174 TAP_TAPCELL_ROW_123_3979
*18175 TAP_TAPCELL_ROW_123_3980
*18176 TAP_TAPCELL_ROW_123_3981
*18177 TAP_TAPCELL_ROW_124_3982
*18178 TAP_TAPCELL_ROW_124_3983
*18179 TAP_TAPCELL_ROW_124_3984
*18180 TAP_TAPCELL_ROW_124_3985
*18181 TAP_TAPCELL_ROW_124_3986
*18182 TAP_TAPCELL_ROW_124_3987
*18183 TAP_TAPCELL_ROW_124_3988
*18184 TAP_TAPCELL_ROW_124_3989
*18185 TAP_TAPCELL_ROW_124_3990
*18186 TAP_TAPCELL_ROW_124_3991
*18187 TAP_TAPCELL_ROW_124_3992
*18188 TAP_TAPCELL_ROW_124_3993
*18189 TAP_TAPCELL_ROW_124_3994
*18190 TAP_TAPCELL_ROW_124_3995
*18191 TAP_TAPCELL_ROW_124_3996
*18192 TAP_TAPCELL_ROW_124_3997
*18193 TAP_TAPCELL_ROW_124_3998
*18194 TAP_TAPCELL_ROW_124_3999
*18195 TAP_TAPCELL_ROW_124_4000
*18196 TAP_TAPCELL_ROW_124_4001
*18197 TAP_TAPCELL_ROW_124_4002
*18198 TAP_TAPCELL_ROW_124_4003
*18199 TAP_TAPCELL_ROW_124_4004
*18200 TAP_TAPCELL_ROW_124_4005
*18201 TAP_TAPCELL_ROW_124_4006
*18202 TAP_TAPCELL_ROW_124_4007
*18203 TAP_TAPCELL_ROW_124_4008
*18204 TAP_TAPCELL_ROW_124_4009
*18205 TAP_TAPCELL_ROW_125_4010
*18206 TAP_TAPCELL_ROW_125_4011
*18207 TAP_TAPCELL_ROW_125_4012
*18208 TAP_TAPCELL_ROW_125_4013
*18209 TAP_TAPCELL_ROW_125_4014
*18210 TAP_TAPCELL_ROW_125_4015
*18211 TAP_TAPCELL_ROW_125_4016
*18212 TAP_TAPCELL_ROW_125_4017
*18213 TAP_TAPCELL_ROW_125_4018
*18214 TAP_TAPCELL_ROW_125_4019
*18215 TAP_TAPCELL_ROW_125_4020
*18216 TAP_TAPCELL_ROW_125_4021
*18217 TAP_TAPCELL_ROW_125_4022
*18218 TAP_TAPCELL_ROW_125_4023
*18219 TAP_TAPCELL_ROW_125_4024
*18220 TAP_TAPCELL_ROW_125_4025
*18221 TAP_TAPCELL_ROW_125_4026
*18222 TAP_TAPCELL_ROW_125_4027
*18223 TAP_TAPCELL_ROW_125_4028
*18224 TAP_TAPCELL_ROW_125_4029
*18225 TAP_TAPCELL_ROW_125_4030
*18226 TAP_TAPCELL_ROW_125_4031
*18227 TAP_TAPCELL_ROW_125_4032
*18228 TAP_TAPCELL_ROW_125_4033
*18229 TAP_TAPCELL_ROW_125_4034
*18230 TAP_TAPCELL_ROW_125_4035
*18231 TAP_TAPCELL_ROW_125_4036
*18232 TAP_TAPCELL_ROW_126_4037
*18233 TAP_TAPCELL_ROW_126_4038
*18234 TAP_TAPCELL_ROW_126_4039
*18235 TAP_TAPCELL_ROW_126_4040
*18236 TAP_TAPCELL_ROW_126_4041
*18237 TAP_TAPCELL_ROW_126_4042
*18238 TAP_TAPCELL_ROW_126_4043
*18239 TAP_TAPCELL_ROW_126_4044
*18240 TAP_TAPCELL_ROW_126_4045
*18241 TAP_TAPCELL_ROW_126_4046
*18242 TAP_TAPCELL_ROW_126_4047
*18243 TAP_TAPCELL_ROW_126_4048
*18244 TAP_TAPCELL_ROW_126_4049
*18245 TAP_TAPCELL_ROW_126_4050
*18246 TAP_TAPCELL_ROW_126_4051
*18247 TAP_TAPCELL_ROW_126_4052
*18248 TAP_TAPCELL_ROW_126_4053
*18249 TAP_TAPCELL_ROW_126_4054
*18250 TAP_TAPCELL_ROW_126_4055
*18251 TAP_TAPCELL_ROW_126_4056
*18252 TAP_TAPCELL_ROW_126_4057
*18253 TAP_TAPCELL_ROW_126_4058
*18254 TAP_TAPCELL_ROW_126_4059
*18255 TAP_TAPCELL_ROW_126_4060
*18256 TAP_TAPCELL_ROW_126_4061
*18257 TAP_TAPCELL_ROW_126_4062
*18258 TAP_TAPCELL_ROW_126_4063
*18259 TAP_TAPCELL_ROW_126_4064
*18260 TAP_TAPCELL_ROW_127_4065
*18261 TAP_TAPCELL_ROW_127_4066
*18262 TAP_TAPCELL_ROW_127_4067
*18263 TAP_TAPCELL_ROW_127_4068
*18264 TAP_TAPCELL_ROW_127_4069
*18265 TAP_TAPCELL_ROW_127_4070
*18266 TAP_TAPCELL_ROW_127_4071
*18267 TAP_TAPCELL_ROW_127_4072
*18268 TAP_TAPCELL_ROW_127_4073
*18269 TAP_TAPCELL_ROW_127_4074
*18270 TAP_TAPCELL_ROW_127_4075
*18271 TAP_TAPCELL_ROW_127_4076
*18272 TAP_TAPCELL_ROW_127_4077
*18273 TAP_TAPCELL_ROW_127_4078
*18274 TAP_TAPCELL_ROW_127_4079
*18275 TAP_TAPCELL_ROW_127_4080
*18276 TAP_TAPCELL_ROW_127_4081
*18277 TAP_TAPCELL_ROW_127_4082
*18278 TAP_TAPCELL_ROW_127_4083
*18279 TAP_TAPCELL_ROW_127_4084
*18280 TAP_TAPCELL_ROW_127_4085
*18281 TAP_TAPCELL_ROW_127_4086
*18282 TAP_TAPCELL_ROW_127_4087
*18283 TAP_TAPCELL_ROW_127_4088
*18284 TAP_TAPCELL_ROW_127_4089
*18285 TAP_TAPCELL_ROW_127_4090
*18286 TAP_TAPCELL_ROW_127_4091
*18287 TAP_TAPCELL_ROW_128_4092
*18288 TAP_TAPCELL_ROW_128_4093
*18289 TAP_TAPCELL_ROW_128_4094
*18290 TAP_TAPCELL_ROW_128_4095
*18291 TAP_TAPCELL_ROW_128_4096
*18292 TAP_TAPCELL_ROW_128_4097
*18293 TAP_TAPCELL_ROW_128_4098
*18294 TAP_TAPCELL_ROW_128_4099
*18295 TAP_TAPCELL_ROW_128_4100
*18296 TAP_TAPCELL_ROW_128_4101
*18297 TAP_TAPCELL_ROW_128_4102
*18298 TAP_TAPCELL_ROW_128_4103
*18299 TAP_TAPCELL_ROW_128_4104
*18300 TAP_TAPCELL_ROW_128_4105
*18301 TAP_TAPCELL_ROW_128_4106
*18302 TAP_TAPCELL_ROW_128_4107
*18303 TAP_TAPCELL_ROW_128_4108
*18304 TAP_TAPCELL_ROW_128_4109
*18305 TAP_TAPCELL_ROW_128_4110
*18306 TAP_TAPCELL_ROW_128_4111
*18307 TAP_TAPCELL_ROW_128_4112
*18308 TAP_TAPCELL_ROW_128_4113
*18309 TAP_TAPCELL_ROW_128_4114
*18310 TAP_TAPCELL_ROW_128_4115
*18311 TAP_TAPCELL_ROW_128_4116
*18312 TAP_TAPCELL_ROW_128_4117
*18313 TAP_TAPCELL_ROW_128_4118
*18314 TAP_TAPCELL_ROW_128_4119
*18315 TAP_TAPCELL_ROW_129_4120
*18316 TAP_TAPCELL_ROW_129_4121
*18317 TAP_TAPCELL_ROW_129_4122
*18318 TAP_TAPCELL_ROW_129_4123
*18319 TAP_TAPCELL_ROW_129_4124
*18320 TAP_TAPCELL_ROW_129_4125
*18321 TAP_TAPCELL_ROW_129_4126
*18322 TAP_TAPCELL_ROW_129_4127
*18323 TAP_TAPCELL_ROW_129_4128
*18324 TAP_TAPCELL_ROW_129_4129
*18325 TAP_TAPCELL_ROW_129_4130
*18326 TAP_TAPCELL_ROW_129_4131
*18327 TAP_TAPCELL_ROW_129_4132
*18328 TAP_TAPCELL_ROW_129_4133
*18329 TAP_TAPCELL_ROW_129_4134
*18330 TAP_TAPCELL_ROW_129_4135
*18331 TAP_TAPCELL_ROW_129_4136
*18332 TAP_TAPCELL_ROW_129_4137
*18333 TAP_TAPCELL_ROW_129_4138
*18334 TAP_TAPCELL_ROW_129_4139
*18335 TAP_TAPCELL_ROW_129_4140
*18336 TAP_TAPCELL_ROW_129_4141
*18337 TAP_TAPCELL_ROW_129_4142
*18338 TAP_TAPCELL_ROW_129_4143
*18339 TAP_TAPCELL_ROW_129_4144
*18340 TAP_TAPCELL_ROW_129_4145
*18341 TAP_TAPCELL_ROW_129_4146
*18342 TAP_TAPCELL_ROW_12_902
*18343 TAP_TAPCELL_ROW_12_903
*18344 TAP_TAPCELL_ROW_12_904
*18345 TAP_TAPCELL_ROW_12_905
*18346 TAP_TAPCELL_ROW_12_906
*18347 TAP_TAPCELL_ROW_12_907
*18348 TAP_TAPCELL_ROW_12_908
*18349 TAP_TAPCELL_ROW_12_909
*18350 TAP_TAPCELL_ROW_12_910
*18351 TAP_TAPCELL_ROW_12_911
*18352 TAP_TAPCELL_ROW_12_912
*18353 TAP_TAPCELL_ROW_12_913
*18354 TAP_TAPCELL_ROW_12_914
*18355 TAP_TAPCELL_ROW_12_915
*18356 TAP_TAPCELL_ROW_12_916
*18357 TAP_TAPCELL_ROW_12_917
*18358 TAP_TAPCELL_ROW_12_918
*18359 TAP_TAPCELL_ROW_12_919
*18360 TAP_TAPCELL_ROW_12_920
*18361 TAP_TAPCELL_ROW_12_921
*18362 TAP_TAPCELL_ROW_12_922
*18363 TAP_TAPCELL_ROW_12_923
*18364 TAP_TAPCELL_ROW_12_924
*18365 TAP_TAPCELL_ROW_12_925
*18366 TAP_TAPCELL_ROW_12_926
*18367 TAP_TAPCELL_ROW_12_927
*18368 TAP_TAPCELL_ROW_12_928
*18369 TAP_TAPCELL_ROW_12_929
*18370 TAP_TAPCELL_ROW_130_4147
*18371 TAP_TAPCELL_ROW_130_4148
*18372 TAP_TAPCELL_ROW_130_4149
*18373 TAP_TAPCELL_ROW_130_4150
*18374 TAP_TAPCELL_ROW_130_4151
*18375 TAP_TAPCELL_ROW_130_4152
*18376 TAP_TAPCELL_ROW_130_4153
*18377 TAP_TAPCELL_ROW_130_4154
*18378 TAP_TAPCELL_ROW_130_4155
*18379 TAP_TAPCELL_ROW_130_4156
*18380 TAP_TAPCELL_ROW_130_4157
*18381 TAP_TAPCELL_ROW_130_4158
*18382 TAP_TAPCELL_ROW_130_4159
*18383 TAP_TAPCELL_ROW_130_4160
*18384 TAP_TAPCELL_ROW_130_4161
*18385 TAP_TAPCELL_ROW_130_4162
*18386 TAP_TAPCELL_ROW_130_4163
*18387 TAP_TAPCELL_ROW_130_4164
*18388 TAP_TAPCELL_ROW_130_4165
*18389 TAP_TAPCELL_ROW_130_4166
*18390 TAP_TAPCELL_ROW_130_4167
*18391 TAP_TAPCELL_ROW_130_4168
*18392 TAP_TAPCELL_ROW_130_4169
*18393 TAP_TAPCELL_ROW_130_4170
*18394 TAP_TAPCELL_ROW_130_4171
*18395 TAP_TAPCELL_ROW_130_4172
*18396 TAP_TAPCELL_ROW_130_4173
*18397 TAP_TAPCELL_ROW_130_4174
*18398 TAP_TAPCELL_ROW_131_4175
*18399 TAP_TAPCELL_ROW_131_4176
*18400 TAP_TAPCELL_ROW_131_4177
*18401 TAP_TAPCELL_ROW_131_4178
*18402 TAP_TAPCELL_ROW_131_4179
*18403 TAP_TAPCELL_ROW_131_4180
*18404 TAP_TAPCELL_ROW_131_4181
*18405 TAP_TAPCELL_ROW_131_4182
*18406 TAP_TAPCELL_ROW_131_4183
*18407 TAP_TAPCELL_ROW_131_4184
*18408 TAP_TAPCELL_ROW_131_4185
*18409 TAP_TAPCELL_ROW_131_4186
*18410 TAP_TAPCELL_ROW_131_4187
*18411 TAP_TAPCELL_ROW_131_4188
*18412 TAP_TAPCELL_ROW_131_4189
*18413 TAP_TAPCELL_ROW_131_4190
*18414 TAP_TAPCELL_ROW_131_4191
*18415 TAP_TAPCELL_ROW_131_4192
*18416 TAP_TAPCELL_ROW_131_4193
*18417 TAP_TAPCELL_ROW_131_4194
*18418 TAP_TAPCELL_ROW_131_4195
*18419 TAP_TAPCELL_ROW_131_4196
*18420 TAP_TAPCELL_ROW_131_4197
*18421 TAP_TAPCELL_ROW_131_4198
*18422 TAP_TAPCELL_ROW_131_4199
*18423 TAP_TAPCELL_ROW_131_4200
*18424 TAP_TAPCELL_ROW_131_4201
*18425 TAP_TAPCELL_ROW_132_4202
*18426 TAP_TAPCELL_ROW_132_4203
*18427 TAP_TAPCELL_ROW_132_4204
*18428 TAP_TAPCELL_ROW_132_4205
*18429 TAP_TAPCELL_ROW_132_4206
*18430 TAP_TAPCELL_ROW_132_4207
*18431 TAP_TAPCELL_ROW_132_4208
*18432 TAP_TAPCELL_ROW_132_4209
*18433 TAP_TAPCELL_ROW_132_4210
*18434 TAP_TAPCELL_ROW_132_4211
*18435 TAP_TAPCELL_ROW_132_4212
*18436 TAP_TAPCELL_ROW_132_4213
*18437 TAP_TAPCELL_ROW_132_4214
*18438 TAP_TAPCELL_ROW_132_4215
*18439 TAP_TAPCELL_ROW_132_4216
*18440 TAP_TAPCELL_ROW_132_4217
*18441 TAP_TAPCELL_ROW_132_4218
*18442 TAP_TAPCELL_ROW_132_4219
*18443 TAP_TAPCELL_ROW_132_4220
*18444 TAP_TAPCELL_ROW_132_4221
*18445 TAP_TAPCELL_ROW_132_4222
*18446 TAP_TAPCELL_ROW_132_4223
*18447 TAP_TAPCELL_ROW_132_4224
*18448 TAP_TAPCELL_ROW_132_4225
*18449 TAP_TAPCELL_ROW_132_4226
*18450 TAP_TAPCELL_ROW_132_4227
*18451 TAP_TAPCELL_ROW_132_4228
*18452 TAP_TAPCELL_ROW_132_4229
*18453 TAP_TAPCELL_ROW_133_4230
*18454 TAP_TAPCELL_ROW_133_4231
*18455 TAP_TAPCELL_ROW_133_4232
*18456 TAP_TAPCELL_ROW_133_4233
*18457 TAP_TAPCELL_ROW_133_4234
*18458 TAP_TAPCELL_ROW_133_4235
*18459 TAP_TAPCELL_ROW_133_4236
*18460 TAP_TAPCELL_ROW_133_4237
*18461 TAP_TAPCELL_ROW_133_4238
*18462 TAP_TAPCELL_ROW_133_4239
*18463 TAP_TAPCELL_ROW_133_4240
*18464 TAP_TAPCELL_ROW_133_4241
*18465 TAP_TAPCELL_ROW_133_4242
*18466 TAP_TAPCELL_ROW_133_4243
*18467 TAP_TAPCELL_ROW_133_4244
*18468 TAP_TAPCELL_ROW_133_4245
*18469 TAP_TAPCELL_ROW_133_4246
*18470 TAP_TAPCELL_ROW_133_4247
*18471 TAP_TAPCELL_ROW_133_4248
*18472 TAP_TAPCELL_ROW_133_4249
*18473 TAP_TAPCELL_ROW_133_4250
*18474 TAP_TAPCELL_ROW_133_4251
*18475 TAP_TAPCELL_ROW_133_4252
*18476 TAP_TAPCELL_ROW_133_4253
*18477 TAP_TAPCELL_ROW_133_4254
*18478 TAP_TAPCELL_ROW_133_4255
*18479 TAP_TAPCELL_ROW_133_4256
*18480 TAP_TAPCELL_ROW_134_4257
*18481 TAP_TAPCELL_ROW_134_4258
*18482 TAP_TAPCELL_ROW_134_4259
*18483 TAP_TAPCELL_ROW_134_4260
*18484 TAP_TAPCELL_ROW_134_4261
*18485 TAP_TAPCELL_ROW_134_4262
*18486 TAP_TAPCELL_ROW_134_4263
*18487 TAP_TAPCELL_ROW_134_4264
*18488 TAP_TAPCELL_ROW_134_4265
*18489 TAP_TAPCELL_ROW_134_4266
*18490 TAP_TAPCELL_ROW_134_4267
*18491 TAP_TAPCELL_ROW_134_4268
*18492 TAP_TAPCELL_ROW_134_4269
*18493 TAP_TAPCELL_ROW_134_4270
*18494 TAP_TAPCELL_ROW_134_4271
*18495 TAP_TAPCELL_ROW_134_4272
*18496 TAP_TAPCELL_ROW_134_4273
*18497 TAP_TAPCELL_ROW_134_4274
*18498 TAP_TAPCELL_ROW_134_4275
*18499 TAP_TAPCELL_ROW_134_4276
*18500 TAP_TAPCELL_ROW_134_4277
*18501 TAP_TAPCELL_ROW_134_4278
*18502 TAP_TAPCELL_ROW_134_4279
*18503 TAP_TAPCELL_ROW_134_4280
*18504 TAP_TAPCELL_ROW_134_4281
*18505 TAP_TAPCELL_ROW_134_4282
*18506 TAP_TAPCELL_ROW_134_4283
*18507 TAP_TAPCELL_ROW_134_4284
*18508 TAP_TAPCELL_ROW_135_4285
*18509 TAP_TAPCELL_ROW_135_4286
*18510 TAP_TAPCELL_ROW_135_4287
*18511 TAP_TAPCELL_ROW_135_4288
*18512 TAP_TAPCELL_ROW_135_4289
*18513 TAP_TAPCELL_ROW_135_4290
*18514 TAP_TAPCELL_ROW_135_4291
*18515 TAP_TAPCELL_ROW_135_4292
*18516 TAP_TAPCELL_ROW_135_4293
*18517 TAP_TAPCELL_ROW_135_4294
*18518 TAP_TAPCELL_ROW_135_4295
*18519 TAP_TAPCELL_ROW_135_4296
*18520 TAP_TAPCELL_ROW_135_4297
*18521 TAP_TAPCELL_ROW_135_4298
*18522 TAP_TAPCELL_ROW_135_4299
*18523 TAP_TAPCELL_ROW_135_4300
*18524 TAP_TAPCELL_ROW_135_4301
*18525 TAP_TAPCELL_ROW_135_4302
*18526 TAP_TAPCELL_ROW_135_4303
*18527 TAP_TAPCELL_ROW_135_4304
*18528 TAP_TAPCELL_ROW_135_4305
*18529 TAP_TAPCELL_ROW_135_4306
*18530 TAP_TAPCELL_ROW_135_4307
*18531 TAP_TAPCELL_ROW_135_4308
*18532 TAP_TAPCELL_ROW_135_4309
*18533 TAP_TAPCELL_ROW_135_4310
*18534 TAP_TAPCELL_ROW_135_4311
*18535 TAP_TAPCELL_ROW_136_4312
*18536 TAP_TAPCELL_ROW_136_4313
*18537 TAP_TAPCELL_ROW_136_4314
*18538 TAP_TAPCELL_ROW_136_4315
*18539 TAP_TAPCELL_ROW_136_4316
*18540 TAP_TAPCELL_ROW_136_4317
*18541 TAP_TAPCELL_ROW_136_4318
*18542 TAP_TAPCELL_ROW_136_4319
*18543 TAP_TAPCELL_ROW_136_4320
*18544 TAP_TAPCELL_ROW_136_4321
*18545 TAP_TAPCELL_ROW_136_4322
*18546 TAP_TAPCELL_ROW_136_4323
*18547 TAP_TAPCELL_ROW_136_4324
*18548 TAP_TAPCELL_ROW_136_4325
*18549 TAP_TAPCELL_ROW_136_4326
*18550 TAP_TAPCELL_ROW_136_4327
*18551 TAP_TAPCELL_ROW_136_4328
*18552 TAP_TAPCELL_ROW_136_4329
*18553 TAP_TAPCELL_ROW_136_4330
*18554 TAP_TAPCELL_ROW_136_4331
*18555 TAP_TAPCELL_ROW_136_4332
*18556 TAP_TAPCELL_ROW_136_4333
*18557 TAP_TAPCELL_ROW_136_4334
*18558 TAP_TAPCELL_ROW_136_4335
*18559 TAP_TAPCELL_ROW_136_4336
*18560 TAP_TAPCELL_ROW_136_4337
*18561 TAP_TAPCELL_ROW_136_4338
*18562 TAP_TAPCELL_ROW_136_4339
*18563 TAP_TAPCELL_ROW_137_4340
*18564 TAP_TAPCELL_ROW_137_4341
*18565 TAP_TAPCELL_ROW_137_4342
*18566 TAP_TAPCELL_ROW_137_4343
*18567 TAP_TAPCELL_ROW_137_4344
*18568 TAP_TAPCELL_ROW_137_4345
*18569 TAP_TAPCELL_ROW_137_4346
*18570 TAP_TAPCELL_ROW_137_4347
*18571 TAP_TAPCELL_ROW_137_4348
*18572 TAP_TAPCELL_ROW_137_4349
*18573 TAP_TAPCELL_ROW_137_4350
*18574 TAP_TAPCELL_ROW_137_4351
*18575 TAP_TAPCELL_ROW_137_4352
*18576 TAP_TAPCELL_ROW_137_4353
*18577 TAP_TAPCELL_ROW_137_4354
*18578 TAP_TAPCELL_ROW_137_4355
*18579 TAP_TAPCELL_ROW_137_4356
*18580 TAP_TAPCELL_ROW_137_4357
*18581 TAP_TAPCELL_ROW_137_4358
*18582 TAP_TAPCELL_ROW_137_4359
*18583 TAP_TAPCELL_ROW_137_4360
*18584 TAP_TAPCELL_ROW_137_4361
*18585 TAP_TAPCELL_ROW_137_4362
*18586 TAP_TAPCELL_ROW_137_4363
*18587 TAP_TAPCELL_ROW_137_4364
*18588 TAP_TAPCELL_ROW_137_4365
*18589 TAP_TAPCELL_ROW_137_4366
*18590 TAP_TAPCELL_ROW_138_4367
*18591 TAP_TAPCELL_ROW_138_4368
*18592 TAP_TAPCELL_ROW_138_4369
*18593 TAP_TAPCELL_ROW_138_4370
*18594 TAP_TAPCELL_ROW_138_4371
*18595 TAP_TAPCELL_ROW_138_4372
*18596 TAP_TAPCELL_ROW_138_4373
*18597 TAP_TAPCELL_ROW_138_4374
*18598 TAP_TAPCELL_ROW_138_4375
*18599 TAP_TAPCELL_ROW_138_4376
*18600 TAP_TAPCELL_ROW_138_4377
*18601 TAP_TAPCELL_ROW_138_4378
*18602 TAP_TAPCELL_ROW_138_4379
*18603 TAP_TAPCELL_ROW_138_4380
*18604 TAP_TAPCELL_ROW_138_4381
*18605 TAP_TAPCELL_ROW_138_4382
*18606 TAP_TAPCELL_ROW_138_4383
*18607 TAP_TAPCELL_ROW_138_4384
*18608 TAP_TAPCELL_ROW_138_4385
*18609 TAP_TAPCELL_ROW_138_4386
*18610 TAP_TAPCELL_ROW_138_4387
*18611 TAP_TAPCELL_ROW_138_4388
*18612 TAP_TAPCELL_ROW_138_4389
*18613 TAP_TAPCELL_ROW_138_4390
*18614 TAP_TAPCELL_ROW_138_4391
*18615 TAP_TAPCELL_ROW_138_4392
*18616 TAP_TAPCELL_ROW_138_4393
*18617 TAP_TAPCELL_ROW_138_4394
*18618 TAP_TAPCELL_ROW_139_4395
*18619 TAP_TAPCELL_ROW_139_4396
*18620 TAP_TAPCELL_ROW_139_4397
*18621 TAP_TAPCELL_ROW_139_4398
*18622 TAP_TAPCELL_ROW_139_4399
*18623 TAP_TAPCELL_ROW_139_4400
*18624 TAP_TAPCELL_ROW_139_4401
*18625 TAP_TAPCELL_ROW_139_4402
*18626 TAP_TAPCELL_ROW_139_4403
*18627 TAP_TAPCELL_ROW_139_4404
*18628 TAP_TAPCELL_ROW_139_4405
*18629 TAP_TAPCELL_ROW_139_4406
*18630 TAP_TAPCELL_ROW_139_4407
*18631 TAP_TAPCELL_ROW_139_4408
*18632 TAP_TAPCELL_ROW_139_4409
*18633 TAP_TAPCELL_ROW_139_4410
*18634 TAP_TAPCELL_ROW_139_4411
*18635 TAP_TAPCELL_ROW_139_4412
*18636 TAP_TAPCELL_ROW_139_4413
*18637 TAP_TAPCELL_ROW_139_4414
*18638 TAP_TAPCELL_ROW_139_4415
*18639 TAP_TAPCELL_ROW_139_4416
*18640 TAP_TAPCELL_ROW_139_4417
*18641 TAP_TAPCELL_ROW_139_4418
*18642 TAP_TAPCELL_ROW_139_4419
*18643 TAP_TAPCELL_ROW_139_4420
*18644 TAP_TAPCELL_ROW_139_4421
*18645 TAP_TAPCELL_ROW_13_930
*18646 TAP_TAPCELL_ROW_13_931
*18647 TAP_TAPCELL_ROW_13_932
*18648 TAP_TAPCELL_ROW_13_933
*18649 TAP_TAPCELL_ROW_13_934
*18650 TAP_TAPCELL_ROW_13_935
*18651 TAP_TAPCELL_ROW_13_936
*18652 TAP_TAPCELL_ROW_13_937
*18653 TAP_TAPCELL_ROW_13_938
*18654 TAP_TAPCELL_ROW_13_939
*18655 TAP_TAPCELL_ROW_13_940
*18656 TAP_TAPCELL_ROW_13_941
*18657 TAP_TAPCELL_ROW_13_942
*18658 TAP_TAPCELL_ROW_13_943
*18659 TAP_TAPCELL_ROW_13_944
*18660 TAP_TAPCELL_ROW_13_945
*18661 TAP_TAPCELL_ROW_13_946
*18662 TAP_TAPCELL_ROW_13_947
*18663 TAP_TAPCELL_ROW_13_948
*18664 TAP_TAPCELL_ROW_13_949
*18665 TAP_TAPCELL_ROW_13_950
*18666 TAP_TAPCELL_ROW_13_951
*18667 TAP_TAPCELL_ROW_13_952
*18668 TAP_TAPCELL_ROW_13_953
*18669 TAP_TAPCELL_ROW_13_954
*18670 TAP_TAPCELL_ROW_13_955
*18671 TAP_TAPCELL_ROW_13_956
*18672 TAP_TAPCELL_ROW_140_4422
*18673 TAP_TAPCELL_ROW_140_4423
*18674 TAP_TAPCELL_ROW_140_4424
*18675 TAP_TAPCELL_ROW_140_4425
*18676 TAP_TAPCELL_ROW_140_4426
*18677 TAP_TAPCELL_ROW_140_4427
*18678 TAP_TAPCELL_ROW_140_4428
*18679 TAP_TAPCELL_ROW_140_4429
*18680 TAP_TAPCELL_ROW_140_4430
*18681 TAP_TAPCELL_ROW_140_4431
*18682 TAP_TAPCELL_ROW_140_4432
*18683 TAP_TAPCELL_ROW_140_4433
*18684 TAP_TAPCELL_ROW_140_4434
*18685 TAP_TAPCELL_ROW_140_4435
*18686 TAP_TAPCELL_ROW_140_4436
*18687 TAP_TAPCELL_ROW_140_4437
*18688 TAP_TAPCELL_ROW_140_4438
*18689 TAP_TAPCELL_ROW_140_4439
*18690 TAP_TAPCELL_ROW_140_4440
*18691 TAP_TAPCELL_ROW_140_4441
*18692 TAP_TAPCELL_ROW_140_4442
*18693 TAP_TAPCELL_ROW_140_4443
*18694 TAP_TAPCELL_ROW_140_4444
*18695 TAP_TAPCELL_ROW_140_4445
*18696 TAP_TAPCELL_ROW_140_4446
*18697 TAP_TAPCELL_ROW_140_4447
*18698 TAP_TAPCELL_ROW_140_4448
*18699 TAP_TAPCELL_ROW_140_4449
*18700 TAP_TAPCELL_ROW_141_4450
*18701 TAP_TAPCELL_ROW_141_4451
*18702 TAP_TAPCELL_ROW_141_4452
*18703 TAP_TAPCELL_ROW_141_4453
*18704 TAP_TAPCELL_ROW_141_4454
*18705 TAP_TAPCELL_ROW_141_4455
*18706 TAP_TAPCELL_ROW_141_4456
*18707 TAP_TAPCELL_ROW_141_4457
*18708 TAP_TAPCELL_ROW_141_4458
*18709 TAP_TAPCELL_ROW_141_4459
*18710 TAP_TAPCELL_ROW_141_4460
*18711 TAP_TAPCELL_ROW_141_4461
*18712 TAP_TAPCELL_ROW_141_4462
*18713 TAP_TAPCELL_ROW_141_4463
*18714 TAP_TAPCELL_ROW_141_4464
*18715 TAP_TAPCELL_ROW_141_4465
*18716 TAP_TAPCELL_ROW_141_4466
*18717 TAP_TAPCELL_ROW_141_4467
*18718 TAP_TAPCELL_ROW_141_4468
*18719 TAP_TAPCELL_ROW_141_4469
*18720 TAP_TAPCELL_ROW_141_4470
*18721 TAP_TAPCELL_ROW_141_4471
*18722 TAP_TAPCELL_ROW_141_4472
*18723 TAP_TAPCELL_ROW_141_4473
*18724 TAP_TAPCELL_ROW_141_4474
*18725 TAP_TAPCELL_ROW_141_4475
*18726 TAP_TAPCELL_ROW_141_4476
*18727 TAP_TAPCELL_ROW_142_4477
*18728 TAP_TAPCELL_ROW_142_4478
*18729 TAP_TAPCELL_ROW_142_4479
*18730 TAP_TAPCELL_ROW_142_4480
*18731 TAP_TAPCELL_ROW_142_4481
*18732 TAP_TAPCELL_ROW_142_4482
*18733 TAP_TAPCELL_ROW_142_4483
*18734 TAP_TAPCELL_ROW_142_4484
*18735 TAP_TAPCELL_ROW_142_4485
*18736 TAP_TAPCELL_ROW_142_4486
*18737 TAP_TAPCELL_ROW_142_4487
*18738 TAP_TAPCELL_ROW_142_4488
*18739 TAP_TAPCELL_ROW_142_4489
*18740 TAP_TAPCELL_ROW_142_4490
*18741 TAP_TAPCELL_ROW_142_4491
*18742 TAP_TAPCELL_ROW_142_4492
*18743 TAP_TAPCELL_ROW_142_4493
*18744 TAP_TAPCELL_ROW_142_4494
*18745 TAP_TAPCELL_ROW_142_4495
*18746 TAP_TAPCELL_ROW_142_4496
*18747 TAP_TAPCELL_ROW_142_4497
*18748 TAP_TAPCELL_ROW_142_4498
*18749 TAP_TAPCELL_ROW_142_4499
*18750 TAP_TAPCELL_ROW_142_4500
*18751 TAP_TAPCELL_ROW_142_4501
*18752 TAP_TAPCELL_ROW_142_4502
*18753 TAP_TAPCELL_ROW_142_4503
*18754 TAP_TAPCELL_ROW_142_4504
*18755 TAP_TAPCELL_ROW_143_4505
*18756 TAP_TAPCELL_ROW_143_4506
*18757 TAP_TAPCELL_ROW_143_4507
*18758 TAP_TAPCELL_ROW_143_4508
*18759 TAP_TAPCELL_ROW_143_4509
*18760 TAP_TAPCELL_ROW_143_4510
*18761 TAP_TAPCELL_ROW_143_4511
*18762 TAP_TAPCELL_ROW_143_4512
*18763 TAP_TAPCELL_ROW_143_4513
*18764 TAP_TAPCELL_ROW_143_4514
*18765 TAP_TAPCELL_ROW_143_4515
*18766 TAP_TAPCELL_ROW_143_4516
*18767 TAP_TAPCELL_ROW_143_4517
*18768 TAP_TAPCELL_ROW_143_4518
*18769 TAP_TAPCELL_ROW_143_4519
*18770 TAP_TAPCELL_ROW_143_4520
*18771 TAP_TAPCELL_ROW_143_4521
*18772 TAP_TAPCELL_ROW_143_4522
*18773 TAP_TAPCELL_ROW_143_4523
*18774 TAP_TAPCELL_ROW_143_4524
*18775 TAP_TAPCELL_ROW_143_4525
*18776 TAP_TAPCELL_ROW_143_4526
*18777 TAP_TAPCELL_ROW_143_4527
*18778 TAP_TAPCELL_ROW_143_4528
*18779 TAP_TAPCELL_ROW_143_4529
*18780 TAP_TAPCELL_ROW_143_4530
*18781 TAP_TAPCELL_ROW_143_4531
*18782 TAP_TAPCELL_ROW_144_4532
*18783 TAP_TAPCELL_ROW_144_4533
*18784 TAP_TAPCELL_ROW_144_4534
*18785 TAP_TAPCELL_ROW_144_4535
*18786 TAP_TAPCELL_ROW_144_4536
*18787 TAP_TAPCELL_ROW_144_4537
*18788 TAP_TAPCELL_ROW_144_4538
*18789 TAP_TAPCELL_ROW_144_4539
*18790 TAP_TAPCELL_ROW_144_4540
*18791 TAP_TAPCELL_ROW_144_4541
*18792 TAP_TAPCELL_ROW_144_4542
*18793 TAP_TAPCELL_ROW_144_4543
*18794 TAP_TAPCELL_ROW_144_4544
*18795 TAP_TAPCELL_ROW_144_4545
*18796 TAP_TAPCELL_ROW_144_4546
*18797 TAP_TAPCELL_ROW_144_4547
*18798 TAP_TAPCELL_ROW_144_4548
*18799 TAP_TAPCELL_ROW_144_4549
*18800 TAP_TAPCELL_ROW_144_4550
*18801 TAP_TAPCELL_ROW_144_4551
*18802 TAP_TAPCELL_ROW_144_4552
*18803 TAP_TAPCELL_ROW_144_4553
*18804 TAP_TAPCELL_ROW_144_4554
*18805 TAP_TAPCELL_ROW_144_4555
*18806 TAP_TAPCELL_ROW_144_4556
*18807 TAP_TAPCELL_ROW_144_4557
*18808 TAP_TAPCELL_ROW_144_4558
*18809 TAP_TAPCELL_ROW_144_4559
*18810 TAP_TAPCELL_ROW_145_4560
*18811 TAP_TAPCELL_ROW_145_4561
*18812 TAP_TAPCELL_ROW_145_4562
*18813 TAP_TAPCELL_ROW_145_4563
*18814 TAP_TAPCELL_ROW_145_4564
*18815 TAP_TAPCELL_ROW_145_4565
*18816 TAP_TAPCELL_ROW_145_4566
*18817 TAP_TAPCELL_ROW_145_4567
*18818 TAP_TAPCELL_ROW_145_4568
*18819 TAP_TAPCELL_ROW_145_4569
*18820 TAP_TAPCELL_ROW_145_4570
*18821 TAP_TAPCELL_ROW_145_4571
*18822 TAP_TAPCELL_ROW_145_4572
*18823 TAP_TAPCELL_ROW_145_4573
*18824 TAP_TAPCELL_ROW_145_4574
*18825 TAP_TAPCELL_ROW_145_4575
*18826 TAP_TAPCELL_ROW_145_4576
*18827 TAP_TAPCELL_ROW_145_4577
*18828 TAP_TAPCELL_ROW_145_4578
*18829 TAP_TAPCELL_ROW_145_4579
*18830 TAP_TAPCELL_ROW_145_4580
*18831 TAP_TAPCELL_ROW_145_4581
*18832 TAP_TAPCELL_ROW_145_4582
*18833 TAP_TAPCELL_ROW_145_4583
*18834 TAP_TAPCELL_ROW_145_4584
*18835 TAP_TAPCELL_ROW_145_4585
*18836 TAP_TAPCELL_ROW_145_4586
*18837 TAP_TAPCELL_ROW_146_4587
*18838 TAP_TAPCELL_ROW_146_4588
*18839 TAP_TAPCELL_ROW_146_4589
*18840 TAP_TAPCELL_ROW_146_4590
*18841 TAP_TAPCELL_ROW_146_4591
*18842 TAP_TAPCELL_ROW_146_4592
*18843 TAP_TAPCELL_ROW_146_4593
*18844 TAP_TAPCELL_ROW_146_4594
*18845 TAP_TAPCELL_ROW_146_4595
*18846 TAP_TAPCELL_ROW_146_4596
*18847 TAP_TAPCELL_ROW_146_4597
*18848 TAP_TAPCELL_ROW_146_4598
*18849 TAP_TAPCELL_ROW_146_4599
*18850 TAP_TAPCELL_ROW_146_4600
*18851 TAP_TAPCELL_ROW_146_4601
*18852 TAP_TAPCELL_ROW_146_4602
*18853 TAP_TAPCELL_ROW_146_4603
*18854 TAP_TAPCELL_ROW_146_4604
*18855 TAP_TAPCELL_ROW_146_4605
*18856 TAP_TAPCELL_ROW_146_4606
*18857 TAP_TAPCELL_ROW_146_4607
*18858 TAP_TAPCELL_ROW_146_4608
*18859 TAP_TAPCELL_ROW_146_4609
*18860 TAP_TAPCELL_ROW_146_4610
*18861 TAP_TAPCELL_ROW_146_4611
*18862 TAP_TAPCELL_ROW_146_4612
*18863 TAP_TAPCELL_ROW_146_4613
*18864 TAP_TAPCELL_ROW_146_4614
*18865 TAP_TAPCELL_ROW_147_4615
*18866 TAP_TAPCELL_ROW_147_4616
*18867 TAP_TAPCELL_ROW_147_4617
*18868 TAP_TAPCELL_ROW_147_4618
*18869 TAP_TAPCELL_ROW_147_4619
*18870 TAP_TAPCELL_ROW_147_4620
*18871 TAP_TAPCELL_ROW_147_4621
*18872 TAP_TAPCELL_ROW_147_4622
*18873 TAP_TAPCELL_ROW_147_4623
*18874 TAP_TAPCELL_ROW_147_4624
*18875 TAP_TAPCELL_ROW_147_4625
*18876 TAP_TAPCELL_ROW_147_4626
*18877 TAP_TAPCELL_ROW_147_4627
*18878 TAP_TAPCELL_ROW_147_4628
*18879 TAP_TAPCELL_ROW_147_4629
*18880 TAP_TAPCELL_ROW_147_4630
*18881 TAP_TAPCELL_ROW_147_4631
*18882 TAP_TAPCELL_ROW_147_4632
*18883 TAP_TAPCELL_ROW_147_4633
*18884 TAP_TAPCELL_ROW_147_4634
*18885 TAP_TAPCELL_ROW_147_4635
*18886 TAP_TAPCELL_ROW_147_4636
*18887 TAP_TAPCELL_ROW_147_4637
*18888 TAP_TAPCELL_ROW_147_4638
*18889 TAP_TAPCELL_ROW_147_4639
*18890 TAP_TAPCELL_ROW_147_4640
*18891 TAP_TAPCELL_ROW_147_4641
*18892 TAP_TAPCELL_ROW_148_4642
*18893 TAP_TAPCELL_ROW_148_4643
*18894 TAP_TAPCELL_ROW_148_4644
*18895 TAP_TAPCELL_ROW_148_4645
*18896 TAP_TAPCELL_ROW_148_4646
*18897 TAP_TAPCELL_ROW_148_4647
*18898 TAP_TAPCELL_ROW_148_4648
*18899 TAP_TAPCELL_ROW_148_4649
*18900 TAP_TAPCELL_ROW_148_4650
*18901 TAP_TAPCELL_ROW_148_4651
*18902 TAP_TAPCELL_ROW_148_4652
*18903 TAP_TAPCELL_ROW_148_4653
*18904 TAP_TAPCELL_ROW_148_4654
*18905 TAP_TAPCELL_ROW_148_4655
*18906 TAP_TAPCELL_ROW_148_4656
*18907 TAP_TAPCELL_ROW_148_4657
*18908 TAP_TAPCELL_ROW_148_4658
*18909 TAP_TAPCELL_ROW_148_4659
*18910 TAP_TAPCELL_ROW_148_4660
*18911 TAP_TAPCELL_ROW_148_4661
*18912 TAP_TAPCELL_ROW_148_4662
*18913 TAP_TAPCELL_ROW_148_4663
*18914 TAP_TAPCELL_ROW_148_4664
*18915 TAP_TAPCELL_ROW_148_4665
*18916 TAP_TAPCELL_ROW_148_4666
*18917 TAP_TAPCELL_ROW_148_4667
*18918 TAP_TAPCELL_ROW_148_4668
*18919 TAP_TAPCELL_ROW_148_4669
*18920 TAP_TAPCELL_ROW_149_4670
*18921 TAP_TAPCELL_ROW_149_4671
*18922 TAP_TAPCELL_ROW_149_4672
*18923 TAP_TAPCELL_ROW_149_4673
*18924 TAP_TAPCELL_ROW_149_4674
*18925 TAP_TAPCELL_ROW_149_4675
*18926 TAP_TAPCELL_ROW_149_4676
*18927 TAP_TAPCELL_ROW_149_4677
*18928 TAP_TAPCELL_ROW_149_4678
*18929 TAP_TAPCELL_ROW_149_4679
*18930 TAP_TAPCELL_ROW_149_4680
*18931 TAP_TAPCELL_ROW_149_4681
*18932 TAP_TAPCELL_ROW_149_4682
*18933 TAP_TAPCELL_ROW_149_4683
*18934 TAP_TAPCELL_ROW_149_4684
*18935 TAP_TAPCELL_ROW_149_4685
*18936 TAP_TAPCELL_ROW_149_4686
*18937 TAP_TAPCELL_ROW_149_4687
*18938 TAP_TAPCELL_ROW_149_4688
*18939 TAP_TAPCELL_ROW_149_4689
*18940 TAP_TAPCELL_ROW_149_4690
*18941 TAP_TAPCELL_ROW_149_4691
*18942 TAP_TAPCELL_ROW_149_4692
*18943 TAP_TAPCELL_ROW_149_4693
*18944 TAP_TAPCELL_ROW_149_4694
*18945 TAP_TAPCELL_ROW_149_4695
*18946 TAP_TAPCELL_ROW_149_4696
*18947 TAP_TAPCELL_ROW_14_957
*18948 TAP_TAPCELL_ROW_14_958
*18949 TAP_TAPCELL_ROW_14_959
*18950 TAP_TAPCELL_ROW_14_960
*18951 TAP_TAPCELL_ROW_14_961
*18952 TAP_TAPCELL_ROW_14_962
*18953 TAP_TAPCELL_ROW_14_963
*18954 TAP_TAPCELL_ROW_14_964
*18955 TAP_TAPCELL_ROW_14_965
*18956 TAP_TAPCELL_ROW_14_966
*18957 TAP_TAPCELL_ROW_14_967
*18958 TAP_TAPCELL_ROW_14_968
*18959 TAP_TAPCELL_ROW_14_969
*18960 TAP_TAPCELL_ROW_14_970
*18961 TAP_TAPCELL_ROW_14_971
*18962 TAP_TAPCELL_ROW_14_972
*18963 TAP_TAPCELL_ROW_14_973
*18964 TAP_TAPCELL_ROW_14_974
*18965 TAP_TAPCELL_ROW_14_975
*18966 TAP_TAPCELL_ROW_14_976
*18967 TAP_TAPCELL_ROW_14_977
*18968 TAP_TAPCELL_ROW_14_978
*18969 TAP_TAPCELL_ROW_14_979
*18970 TAP_TAPCELL_ROW_14_980
*18971 TAP_TAPCELL_ROW_14_981
*18972 TAP_TAPCELL_ROW_14_982
*18973 TAP_TAPCELL_ROW_14_983
*18974 TAP_TAPCELL_ROW_14_984
*18975 TAP_TAPCELL_ROW_150_4697
*18976 TAP_TAPCELL_ROW_150_4698
*18977 TAP_TAPCELL_ROW_150_4699
*18978 TAP_TAPCELL_ROW_150_4700
*18979 TAP_TAPCELL_ROW_150_4701
*18980 TAP_TAPCELL_ROW_150_4702
*18981 TAP_TAPCELL_ROW_150_4703
*18982 TAP_TAPCELL_ROW_150_4704
*18983 TAP_TAPCELL_ROW_150_4705
*18984 TAP_TAPCELL_ROW_150_4706
*18985 TAP_TAPCELL_ROW_150_4707
*18986 TAP_TAPCELL_ROW_150_4708
*18987 TAP_TAPCELL_ROW_150_4709
*18988 TAP_TAPCELL_ROW_150_4710
*18989 TAP_TAPCELL_ROW_150_4711
*18990 TAP_TAPCELL_ROW_150_4712
*18991 TAP_TAPCELL_ROW_150_4713
*18992 TAP_TAPCELL_ROW_150_4714
*18993 TAP_TAPCELL_ROW_150_4715
*18994 TAP_TAPCELL_ROW_150_4716
*18995 TAP_TAPCELL_ROW_150_4717
*18996 TAP_TAPCELL_ROW_150_4718
*18997 TAP_TAPCELL_ROW_150_4719
*18998 TAP_TAPCELL_ROW_150_4720
*18999 TAP_TAPCELL_ROW_150_4721
*19000 TAP_TAPCELL_ROW_150_4722
*19001 TAP_TAPCELL_ROW_150_4723
*19002 TAP_TAPCELL_ROW_150_4724
*19003 TAP_TAPCELL_ROW_151_4725
*19004 TAP_TAPCELL_ROW_151_4726
*19005 TAP_TAPCELL_ROW_151_4727
*19006 TAP_TAPCELL_ROW_151_4728
*19007 TAP_TAPCELL_ROW_151_4729
*19008 TAP_TAPCELL_ROW_151_4730
*19009 TAP_TAPCELL_ROW_151_4731
*19010 TAP_TAPCELL_ROW_151_4732
*19011 TAP_TAPCELL_ROW_151_4733
*19012 TAP_TAPCELL_ROW_151_4734
*19013 TAP_TAPCELL_ROW_151_4735
*19014 TAP_TAPCELL_ROW_151_4736
*19015 TAP_TAPCELL_ROW_151_4737
*19016 TAP_TAPCELL_ROW_151_4738
*19017 TAP_TAPCELL_ROW_151_4739
*19018 TAP_TAPCELL_ROW_151_4740
*19019 TAP_TAPCELL_ROW_151_4741
*19020 TAP_TAPCELL_ROW_151_4742
*19021 TAP_TAPCELL_ROW_151_4743
*19022 TAP_TAPCELL_ROW_151_4744
*19023 TAP_TAPCELL_ROW_151_4745
*19024 TAP_TAPCELL_ROW_151_4746
*19025 TAP_TAPCELL_ROW_151_4747
*19026 TAP_TAPCELL_ROW_151_4748
*19027 TAP_TAPCELL_ROW_151_4749
*19028 TAP_TAPCELL_ROW_151_4750
*19029 TAP_TAPCELL_ROW_151_4751
*19030 TAP_TAPCELL_ROW_152_4752
*19031 TAP_TAPCELL_ROW_152_4753
*19032 TAP_TAPCELL_ROW_152_4754
*19033 TAP_TAPCELL_ROW_152_4755
*19034 TAP_TAPCELL_ROW_152_4756
*19035 TAP_TAPCELL_ROW_152_4757
*19036 TAP_TAPCELL_ROW_152_4758
*19037 TAP_TAPCELL_ROW_152_4759
*19038 TAP_TAPCELL_ROW_152_4760
*19039 TAP_TAPCELL_ROW_152_4761
*19040 TAP_TAPCELL_ROW_152_4762
*19041 TAP_TAPCELL_ROW_152_4763
*19042 TAP_TAPCELL_ROW_152_4764
*19043 TAP_TAPCELL_ROW_152_4765
*19044 TAP_TAPCELL_ROW_152_4766
*19045 TAP_TAPCELL_ROW_152_4767
*19046 TAP_TAPCELL_ROW_152_4768
*19047 TAP_TAPCELL_ROW_152_4769
*19048 TAP_TAPCELL_ROW_152_4770
*19049 TAP_TAPCELL_ROW_152_4771
*19050 TAP_TAPCELL_ROW_152_4772
*19051 TAP_TAPCELL_ROW_152_4773
*19052 TAP_TAPCELL_ROW_152_4774
*19053 TAP_TAPCELL_ROW_152_4775
*19054 TAP_TAPCELL_ROW_152_4776
*19055 TAP_TAPCELL_ROW_152_4777
*19056 TAP_TAPCELL_ROW_152_4778
*19057 TAP_TAPCELL_ROW_152_4779
*19058 TAP_TAPCELL_ROW_153_4780
*19059 TAP_TAPCELL_ROW_153_4781
*19060 TAP_TAPCELL_ROW_153_4782
*19061 TAP_TAPCELL_ROW_153_4783
*19062 TAP_TAPCELL_ROW_153_4784
*19063 TAP_TAPCELL_ROW_153_4785
*19064 TAP_TAPCELL_ROW_153_4786
*19065 TAP_TAPCELL_ROW_153_4787
*19066 TAP_TAPCELL_ROW_153_4788
*19067 TAP_TAPCELL_ROW_153_4789
*19068 TAP_TAPCELL_ROW_153_4790
*19069 TAP_TAPCELL_ROW_153_4791
*19070 TAP_TAPCELL_ROW_153_4792
*19071 TAP_TAPCELL_ROW_153_4793
*19072 TAP_TAPCELL_ROW_153_4794
*19073 TAP_TAPCELL_ROW_153_4795
*19074 TAP_TAPCELL_ROW_153_4796
*19075 TAP_TAPCELL_ROW_153_4797
*19076 TAP_TAPCELL_ROW_153_4798
*19077 TAP_TAPCELL_ROW_153_4799
*19078 TAP_TAPCELL_ROW_153_4800
*19079 TAP_TAPCELL_ROW_153_4801
*19080 TAP_TAPCELL_ROW_153_4802
*19081 TAP_TAPCELL_ROW_153_4803
*19082 TAP_TAPCELL_ROW_153_4804
*19083 TAP_TAPCELL_ROW_153_4805
*19084 TAP_TAPCELL_ROW_153_4806
*19085 TAP_TAPCELL_ROW_154_4807
*19086 TAP_TAPCELL_ROW_154_4808
*19087 TAP_TAPCELL_ROW_154_4809
*19088 TAP_TAPCELL_ROW_154_4810
*19089 TAP_TAPCELL_ROW_154_4811
*19090 TAP_TAPCELL_ROW_154_4812
*19091 TAP_TAPCELL_ROW_154_4813
*19092 TAP_TAPCELL_ROW_154_4814
*19093 TAP_TAPCELL_ROW_154_4815
*19094 TAP_TAPCELL_ROW_154_4816
*19095 TAP_TAPCELL_ROW_154_4817
*19096 TAP_TAPCELL_ROW_154_4818
*19097 TAP_TAPCELL_ROW_154_4819
*19098 TAP_TAPCELL_ROW_154_4820
*19099 TAP_TAPCELL_ROW_154_4821
*19100 TAP_TAPCELL_ROW_154_4822
*19101 TAP_TAPCELL_ROW_154_4823
*19102 TAP_TAPCELL_ROW_154_4824
*19103 TAP_TAPCELL_ROW_154_4825
*19104 TAP_TAPCELL_ROW_154_4826
*19105 TAP_TAPCELL_ROW_154_4827
*19106 TAP_TAPCELL_ROW_154_4828
*19107 TAP_TAPCELL_ROW_154_4829
*19108 TAP_TAPCELL_ROW_154_4830
*19109 TAP_TAPCELL_ROW_154_4831
*19110 TAP_TAPCELL_ROW_154_4832
*19111 TAP_TAPCELL_ROW_154_4833
*19112 TAP_TAPCELL_ROW_154_4834
*19113 TAP_TAPCELL_ROW_155_4835
*19114 TAP_TAPCELL_ROW_155_4836
*19115 TAP_TAPCELL_ROW_155_4837
*19116 TAP_TAPCELL_ROW_155_4838
*19117 TAP_TAPCELL_ROW_155_4839
*19118 TAP_TAPCELL_ROW_155_4840
*19119 TAP_TAPCELL_ROW_155_4841
*19120 TAP_TAPCELL_ROW_155_4842
*19121 TAP_TAPCELL_ROW_155_4843
*19122 TAP_TAPCELL_ROW_155_4844
*19123 TAP_TAPCELL_ROW_155_4845
*19124 TAP_TAPCELL_ROW_155_4846
*19125 TAP_TAPCELL_ROW_155_4847
*19126 TAP_TAPCELL_ROW_155_4848
*19127 TAP_TAPCELL_ROW_155_4849
*19128 TAP_TAPCELL_ROW_155_4850
*19129 TAP_TAPCELL_ROW_155_4851
*19130 TAP_TAPCELL_ROW_155_4852
*19131 TAP_TAPCELL_ROW_155_4853
*19132 TAP_TAPCELL_ROW_155_4854
*19133 TAP_TAPCELL_ROW_155_4855
*19134 TAP_TAPCELL_ROW_155_4856
*19135 TAP_TAPCELL_ROW_155_4857
*19136 TAP_TAPCELL_ROW_155_4858
*19137 TAP_TAPCELL_ROW_155_4859
*19138 TAP_TAPCELL_ROW_155_4860
*19139 TAP_TAPCELL_ROW_155_4861
*19140 TAP_TAPCELL_ROW_156_4862
*19141 TAP_TAPCELL_ROW_156_4863
*19142 TAP_TAPCELL_ROW_156_4864
*19143 TAP_TAPCELL_ROW_156_4865
*19144 TAP_TAPCELL_ROW_156_4866
*19145 TAP_TAPCELL_ROW_156_4867
*19146 TAP_TAPCELL_ROW_156_4868
*19147 TAP_TAPCELL_ROW_156_4869
*19148 TAP_TAPCELL_ROW_156_4870
*19149 TAP_TAPCELL_ROW_156_4871
*19150 TAP_TAPCELL_ROW_156_4872
*19151 TAP_TAPCELL_ROW_156_4873
*19152 TAP_TAPCELL_ROW_156_4874
*19153 TAP_TAPCELL_ROW_156_4875
*19154 TAP_TAPCELL_ROW_156_4876
*19155 TAP_TAPCELL_ROW_156_4877
*19156 TAP_TAPCELL_ROW_156_4878
*19157 TAP_TAPCELL_ROW_156_4879
*19158 TAP_TAPCELL_ROW_156_4880
*19159 TAP_TAPCELL_ROW_156_4881
*19160 TAP_TAPCELL_ROW_156_4882
*19161 TAP_TAPCELL_ROW_156_4883
*19162 TAP_TAPCELL_ROW_156_4884
*19163 TAP_TAPCELL_ROW_156_4885
*19164 TAP_TAPCELL_ROW_156_4886
*19165 TAP_TAPCELL_ROW_156_4887
*19166 TAP_TAPCELL_ROW_156_4888
*19167 TAP_TAPCELL_ROW_156_4889
*19168 TAP_TAPCELL_ROW_157_4890
*19169 TAP_TAPCELL_ROW_157_4891
*19170 TAP_TAPCELL_ROW_157_4892
*19171 TAP_TAPCELL_ROW_157_4893
*19172 TAP_TAPCELL_ROW_157_4894
*19173 TAP_TAPCELL_ROW_157_4895
*19174 TAP_TAPCELL_ROW_157_4896
*19175 TAP_TAPCELL_ROW_157_4897
*19176 TAP_TAPCELL_ROW_157_4898
*19177 TAP_TAPCELL_ROW_157_4899
*19178 TAP_TAPCELL_ROW_157_4900
*19179 TAP_TAPCELL_ROW_157_4901
*19180 TAP_TAPCELL_ROW_157_4902
*19181 TAP_TAPCELL_ROW_157_4903
*19182 TAP_TAPCELL_ROW_157_4904
*19183 TAP_TAPCELL_ROW_157_4905
*19184 TAP_TAPCELL_ROW_157_4906
*19185 TAP_TAPCELL_ROW_157_4907
*19186 TAP_TAPCELL_ROW_157_4908
*19187 TAP_TAPCELL_ROW_157_4909
*19188 TAP_TAPCELL_ROW_157_4910
*19189 TAP_TAPCELL_ROW_157_4911
*19190 TAP_TAPCELL_ROW_157_4912
*19191 TAP_TAPCELL_ROW_157_4913
*19192 TAP_TAPCELL_ROW_157_4914
*19193 TAP_TAPCELL_ROW_157_4915
*19194 TAP_TAPCELL_ROW_157_4916
*19195 TAP_TAPCELL_ROW_158_4917
*19196 TAP_TAPCELL_ROW_158_4918
*19197 TAP_TAPCELL_ROW_158_4919
*19198 TAP_TAPCELL_ROW_158_4920
*19199 TAP_TAPCELL_ROW_158_4921
*19200 TAP_TAPCELL_ROW_158_4922
*19201 TAP_TAPCELL_ROW_158_4923
*19202 TAP_TAPCELL_ROW_158_4924
*19203 TAP_TAPCELL_ROW_158_4925
*19204 TAP_TAPCELL_ROW_158_4926
*19205 TAP_TAPCELL_ROW_158_4927
*19206 TAP_TAPCELL_ROW_158_4928
*19207 TAP_TAPCELL_ROW_158_4929
*19208 TAP_TAPCELL_ROW_158_4930
*19209 TAP_TAPCELL_ROW_158_4931
*19210 TAP_TAPCELL_ROW_158_4932
*19211 TAP_TAPCELL_ROW_158_4933
*19212 TAP_TAPCELL_ROW_158_4934
*19213 TAP_TAPCELL_ROW_158_4935
*19214 TAP_TAPCELL_ROW_158_4936
*19215 TAP_TAPCELL_ROW_158_4937
*19216 TAP_TAPCELL_ROW_158_4938
*19217 TAP_TAPCELL_ROW_158_4939
*19218 TAP_TAPCELL_ROW_158_4940
*19219 TAP_TAPCELL_ROW_158_4941
*19220 TAP_TAPCELL_ROW_158_4942
*19221 TAP_TAPCELL_ROW_158_4943
*19222 TAP_TAPCELL_ROW_158_4944
*19223 TAP_TAPCELL_ROW_159_4945
*19224 TAP_TAPCELL_ROW_159_4946
*19225 TAP_TAPCELL_ROW_159_4947
*19226 TAP_TAPCELL_ROW_159_4948
*19227 TAP_TAPCELL_ROW_159_4949
*19228 TAP_TAPCELL_ROW_159_4950
*19229 TAP_TAPCELL_ROW_159_4951
*19230 TAP_TAPCELL_ROW_159_4952
*19231 TAP_TAPCELL_ROW_159_4953
*19232 TAP_TAPCELL_ROW_159_4954
*19233 TAP_TAPCELL_ROW_159_4955
*19234 TAP_TAPCELL_ROW_159_4956
*19235 TAP_TAPCELL_ROW_159_4957
*19236 TAP_TAPCELL_ROW_159_4958
*19237 TAP_TAPCELL_ROW_159_4959
*19238 TAP_TAPCELL_ROW_159_4960
*19239 TAP_TAPCELL_ROW_159_4961
*19240 TAP_TAPCELL_ROW_159_4962
*19241 TAP_TAPCELL_ROW_159_4963
*19242 TAP_TAPCELL_ROW_159_4964
*19243 TAP_TAPCELL_ROW_159_4965
*19244 TAP_TAPCELL_ROW_159_4966
*19245 TAP_TAPCELL_ROW_159_4967
*19246 TAP_TAPCELL_ROW_159_4968
*19247 TAP_TAPCELL_ROW_159_4969
*19248 TAP_TAPCELL_ROW_159_4970
*19249 TAP_TAPCELL_ROW_159_4971
*19250 TAP_TAPCELL_ROW_15_1000
*19251 TAP_TAPCELL_ROW_15_1001
*19252 TAP_TAPCELL_ROW_15_1002
*19253 TAP_TAPCELL_ROW_15_1003
*19254 TAP_TAPCELL_ROW_15_1004
*19255 TAP_TAPCELL_ROW_15_1005
*19256 TAP_TAPCELL_ROW_15_1006
*19257 TAP_TAPCELL_ROW_15_1007
*19258 TAP_TAPCELL_ROW_15_1008
*19259 TAP_TAPCELL_ROW_15_1009
*19260 TAP_TAPCELL_ROW_15_1010
*19261 TAP_TAPCELL_ROW_15_1011
*19262 TAP_TAPCELL_ROW_15_985
*19263 TAP_TAPCELL_ROW_15_986
*19264 TAP_TAPCELL_ROW_15_987
*19265 TAP_TAPCELL_ROW_15_988
*19266 TAP_TAPCELL_ROW_15_989
*19267 TAP_TAPCELL_ROW_15_990
*19268 TAP_TAPCELL_ROW_15_991
*19269 TAP_TAPCELL_ROW_15_992
*19270 TAP_TAPCELL_ROW_15_993
*19271 TAP_TAPCELL_ROW_15_994
*19272 TAP_TAPCELL_ROW_15_995
*19273 TAP_TAPCELL_ROW_15_996
*19274 TAP_TAPCELL_ROW_15_997
*19275 TAP_TAPCELL_ROW_15_998
*19276 TAP_TAPCELL_ROW_15_999
*19277 TAP_TAPCELL_ROW_160_4972
*19278 TAP_TAPCELL_ROW_160_4973
*19279 TAP_TAPCELL_ROW_160_4974
*19280 TAP_TAPCELL_ROW_160_4975
*19281 TAP_TAPCELL_ROW_160_4976
*19282 TAP_TAPCELL_ROW_160_4977
*19283 TAP_TAPCELL_ROW_160_4978
*19284 TAP_TAPCELL_ROW_160_4979
*19285 TAP_TAPCELL_ROW_160_4980
*19286 TAP_TAPCELL_ROW_160_4981
*19287 TAP_TAPCELL_ROW_160_4982
*19288 TAP_TAPCELL_ROW_160_4983
*19289 TAP_TAPCELL_ROW_160_4984
*19290 TAP_TAPCELL_ROW_160_4985
*19291 TAP_TAPCELL_ROW_160_4986
*19292 TAP_TAPCELL_ROW_160_4987
*19293 TAP_TAPCELL_ROW_160_4988
*19294 TAP_TAPCELL_ROW_160_4989
*19295 TAP_TAPCELL_ROW_160_4990
*19296 TAP_TAPCELL_ROW_160_4991
*19297 TAP_TAPCELL_ROW_160_4992
*19298 TAP_TAPCELL_ROW_160_4993
*19299 TAP_TAPCELL_ROW_160_4994
*19300 TAP_TAPCELL_ROW_160_4995
*19301 TAP_TAPCELL_ROW_160_4996
*19302 TAP_TAPCELL_ROW_160_4997
*19303 TAP_TAPCELL_ROW_160_4998
*19304 TAP_TAPCELL_ROW_160_4999
*19305 TAP_TAPCELL_ROW_161_5000
*19306 TAP_TAPCELL_ROW_161_5001
*19307 TAP_TAPCELL_ROW_161_5002
*19308 TAP_TAPCELL_ROW_161_5003
*19309 TAP_TAPCELL_ROW_161_5004
*19310 TAP_TAPCELL_ROW_161_5005
*19311 TAP_TAPCELL_ROW_161_5006
*19312 TAP_TAPCELL_ROW_161_5007
*19313 TAP_TAPCELL_ROW_161_5008
*19314 TAP_TAPCELL_ROW_161_5009
*19315 TAP_TAPCELL_ROW_161_5010
*19316 TAP_TAPCELL_ROW_161_5011
*19317 TAP_TAPCELL_ROW_161_5012
*19318 TAP_TAPCELL_ROW_161_5013
*19319 TAP_TAPCELL_ROW_161_5014
*19320 TAP_TAPCELL_ROW_161_5015
*19321 TAP_TAPCELL_ROW_161_5016
*19322 TAP_TAPCELL_ROW_161_5017
*19323 TAP_TAPCELL_ROW_161_5018
*19324 TAP_TAPCELL_ROW_161_5019
*19325 TAP_TAPCELL_ROW_161_5020
*19326 TAP_TAPCELL_ROW_161_5021
*19327 TAP_TAPCELL_ROW_161_5022
*19328 TAP_TAPCELL_ROW_161_5023
*19329 TAP_TAPCELL_ROW_161_5024
*19330 TAP_TAPCELL_ROW_161_5025
*19331 TAP_TAPCELL_ROW_161_5026
*19332 TAP_TAPCELL_ROW_162_5027
*19333 TAP_TAPCELL_ROW_162_5028
*19334 TAP_TAPCELL_ROW_162_5029
*19335 TAP_TAPCELL_ROW_162_5030
*19336 TAP_TAPCELL_ROW_162_5031
*19337 TAP_TAPCELL_ROW_162_5032
*19338 TAP_TAPCELL_ROW_162_5033
*19339 TAP_TAPCELL_ROW_162_5034
*19340 TAP_TAPCELL_ROW_162_5035
*19341 TAP_TAPCELL_ROW_162_5036
*19342 TAP_TAPCELL_ROW_162_5037
*19343 TAP_TAPCELL_ROW_162_5038
*19344 TAP_TAPCELL_ROW_162_5039
*19345 TAP_TAPCELL_ROW_162_5040
*19346 TAP_TAPCELL_ROW_162_5041
*19347 TAP_TAPCELL_ROW_162_5042
*19348 TAP_TAPCELL_ROW_162_5043
*19349 TAP_TAPCELL_ROW_162_5044
*19350 TAP_TAPCELL_ROW_162_5045
*19351 TAP_TAPCELL_ROW_162_5046
*19352 TAP_TAPCELL_ROW_162_5047
*19353 TAP_TAPCELL_ROW_162_5048
*19354 TAP_TAPCELL_ROW_162_5049
*19355 TAP_TAPCELL_ROW_162_5050
*19356 TAP_TAPCELL_ROW_162_5051
*19357 TAP_TAPCELL_ROW_162_5052
*19358 TAP_TAPCELL_ROW_162_5053
*19359 TAP_TAPCELL_ROW_162_5054
*19360 TAP_TAPCELL_ROW_163_5055
*19361 TAP_TAPCELL_ROW_163_5056
*19362 TAP_TAPCELL_ROW_163_5057
*19363 TAP_TAPCELL_ROW_163_5058
*19364 TAP_TAPCELL_ROW_163_5059
*19365 TAP_TAPCELL_ROW_163_5060
*19366 TAP_TAPCELL_ROW_163_5061
*19367 TAP_TAPCELL_ROW_163_5062
*19368 TAP_TAPCELL_ROW_163_5063
*19369 TAP_TAPCELL_ROW_163_5064
*19370 TAP_TAPCELL_ROW_163_5065
*19371 TAP_TAPCELL_ROW_163_5066
*19372 TAP_TAPCELL_ROW_163_5067
*19373 TAP_TAPCELL_ROW_163_5068
*19374 TAP_TAPCELL_ROW_163_5069
*19375 TAP_TAPCELL_ROW_163_5070
*19376 TAP_TAPCELL_ROW_163_5071
*19377 TAP_TAPCELL_ROW_163_5072
*19378 TAP_TAPCELL_ROW_163_5073
*19379 TAP_TAPCELL_ROW_163_5074
*19380 TAP_TAPCELL_ROW_163_5075
*19381 TAP_TAPCELL_ROW_163_5076
*19382 TAP_TAPCELL_ROW_163_5077
*19383 TAP_TAPCELL_ROW_163_5078
*19384 TAP_TAPCELL_ROW_163_5079
*19385 TAP_TAPCELL_ROW_163_5080
*19386 TAP_TAPCELL_ROW_163_5081
*19387 TAP_TAPCELL_ROW_164_5082
*19388 TAP_TAPCELL_ROW_164_5083
*19389 TAP_TAPCELL_ROW_164_5084
*19390 TAP_TAPCELL_ROW_164_5085
*19391 TAP_TAPCELL_ROW_164_5086
*19392 TAP_TAPCELL_ROW_164_5087
*19393 TAP_TAPCELL_ROW_164_5088
*19394 TAP_TAPCELL_ROW_164_5089
*19395 TAP_TAPCELL_ROW_164_5090
*19396 TAP_TAPCELL_ROW_164_5091
*19397 TAP_TAPCELL_ROW_164_5092
*19398 TAP_TAPCELL_ROW_164_5093
*19399 TAP_TAPCELL_ROW_164_5094
*19400 TAP_TAPCELL_ROW_164_5095
*19401 TAP_TAPCELL_ROW_164_5096
*19402 TAP_TAPCELL_ROW_164_5097
*19403 TAP_TAPCELL_ROW_164_5098
*19404 TAP_TAPCELL_ROW_164_5099
*19405 TAP_TAPCELL_ROW_164_5100
*19406 TAP_TAPCELL_ROW_164_5101
*19407 TAP_TAPCELL_ROW_164_5102
*19408 TAP_TAPCELL_ROW_164_5103
*19409 TAP_TAPCELL_ROW_164_5104
*19410 TAP_TAPCELL_ROW_164_5105
*19411 TAP_TAPCELL_ROW_164_5106
*19412 TAP_TAPCELL_ROW_164_5107
*19413 TAP_TAPCELL_ROW_164_5108
*19414 TAP_TAPCELL_ROW_164_5109
*19415 TAP_TAPCELL_ROW_165_5110
*19416 TAP_TAPCELL_ROW_165_5111
*19417 TAP_TAPCELL_ROW_165_5112
*19418 TAP_TAPCELL_ROW_165_5113
*19419 TAP_TAPCELL_ROW_165_5114
*19420 TAP_TAPCELL_ROW_165_5115
*19421 TAP_TAPCELL_ROW_165_5116
*19422 TAP_TAPCELL_ROW_165_5117
*19423 TAP_TAPCELL_ROW_165_5118
*19424 TAP_TAPCELL_ROW_165_5119
*19425 TAP_TAPCELL_ROW_165_5120
*19426 TAP_TAPCELL_ROW_165_5121
*19427 TAP_TAPCELL_ROW_165_5122
*19428 TAP_TAPCELL_ROW_165_5123
*19429 TAP_TAPCELL_ROW_165_5124
*19430 TAP_TAPCELL_ROW_165_5125
*19431 TAP_TAPCELL_ROW_165_5126
*19432 TAP_TAPCELL_ROW_165_5127
*19433 TAP_TAPCELL_ROW_165_5128
*19434 TAP_TAPCELL_ROW_165_5129
*19435 TAP_TAPCELL_ROW_165_5130
*19436 TAP_TAPCELL_ROW_165_5131
*19437 TAP_TAPCELL_ROW_165_5132
*19438 TAP_TAPCELL_ROW_165_5133
*19439 TAP_TAPCELL_ROW_165_5134
*19440 TAP_TAPCELL_ROW_165_5135
*19441 TAP_TAPCELL_ROW_165_5136
*19442 TAP_TAPCELL_ROW_166_5137
*19443 TAP_TAPCELL_ROW_166_5138
*19444 TAP_TAPCELL_ROW_166_5139
*19445 TAP_TAPCELL_ROW_166_5140
*19446 TAP_TAPCELL_ROW_166_5141
*19447 TAP_TAPCELL_ROW_166_5142
*19448 TAP_TAPCELL_ROW_166_5143
*19449 TAP_TAPCELL_ROW_166_5144
*19450 TAP_TAPCELL_ROW_166_5145
*19451 TAP_TAPCELL_ROW_166_5146
*19452 TAP_TAPCELL_ROW_166_5147
*19453 TAP_TAPCELL_ROW_166_5148
*19454 TAP_TAPCELL_ROW_166_5149
*19455 TAP_TAPCELL_ROW_166_5150
*19456 TAP_TAPCELL_ROW_166_5151
*19457 TAP_TAPCELL_ROW_166_5152
*19458 TAP_TAPCELL_ROW_166_5153
*19459 TAP_TAPCELL_ROW_166_5154
*19460 TAP_TAPCELL_ROW_166_5155
*19461 TAP_TAPCELL_ROW_166_5156
*19462 TAP_TAPCELL_ROW_166_5157
*19463 TAP_TAPCELL_ROW_166_5158
*19464 TAP_TAPCELL_ROW_166_5159
*19465 TAP_TAPCELL_ROW_166_5160
*19466 TAP_TAPCELL_ROW_166_5161
*19467 TAP_TAPCELL_ROW_166_5162
*19468 TAP_TAPCELL_ROW_166_5163
*19469 TAP_TAPCELL_ROW_166_5164
*19470 TAP_TAPCELL_ROW_167_5165
*19471 TAP_TAPCELL_ROW_167_5166
*19472 TAP_TAPCELL_ROW_167_5167
*19473 TAP_TAPCELL_ROW_167_5168
*19474 TAP_TAPCELL_ROW_167_5169
*19475 TAP_TAPCELL_ROW_167_5170
*19476 TAP_TAPCELL_ROW_167_5171
*19477 TAP_TAPCELL_ROW_167_5172
*19478 TAP_TAPCELL_ROW_167_5173
*19479 TAP_TAPCELL_ROW_167_5174
*19480 TAP_TAPCELL_ROW_167_5175
*19481 TAP_TAPCELL_ROW_167_5176
*19482 TAP_TAPCELL_ROW_167_5177
*19483 TAP_TAPCELL_ROW_167_5178
*19484 TAP_TAPCELL_ROW_167_5179
*19485 TAP_TAPCELL_ROW_167_5180
*19486 TAP_TAPCELL_ROW_167_5181
*19487 TAP_TAPCELL_ROW_167_5182
*19488 TAP_TAPCELL_ROW_167_5183
*19489 TAP_TAPCELL_ROW_167_5184
*19490 TAP_TAPCELL_ROW_167_5185
*19491 TAP_TAPCELL_ROW_167_5186
*19492 TAP_TAPCELL_ROW_167_5187
*19493 TAP_TAPCELL_ROW_167_5188
*19494 TAP_TAPCELL_ROW_167_5189
*19495 TAP_TAPCELL_ROW_167_5190
*19496 TAP_TAPCELL_ROW_167_5191
*19497 TAP_TAPCELL_ROW_168_5192
*19498 TAP_TAPCELL_ROW_168_5193
*19499 TAP_TAPCELL_ROW_168_5194
*19500 TAP_TAPCELL_ROW_168_5195
*19501 TAP_TAPCELL_ROW_168_5196
*19502 TAP_TAPCELL_ROW_168_5197
*19503 TAP_TAPCELL_ROW_168_5198
*19504 TAP_TAPCELL_ROW_168_5199
*19505 TAP_TAPCELL_ROW_168_5200
*19506 TAP_TAPCELL_ROW_168_5201
*19507 TAP_TAPCELL_ROW_168_5202
*19508 TAP_TAPCELL_ROW_168_5203
*19509 TAP_TAPCELL_ROW_168_5204
*19510 TAP_TAPCELL_ROW_168_5205
*19511 TAP_TAPCELL_ROW_168_5206
*19512 TAP_TAPCELL_ROW_168_5207
*19513 TAP_TAPCELL_ROW_168_5208
*19514 TAP_TAPCELL_ROW_168_5209
*19515 TAP_TAPCELL_ROW_168_5210
*19516 TAP_TAPCELL_ROW_168_5211
*19517 TAP_TAPCELL_ROW_168_5212
*19518 TAP_TAPCELL_ROW_168_5213
*19519 TAP_TAPCELL_ROW_168_5214
*19520 TAP_TAPCELL_ROW_168_5215
*19521 TAP_TAPCELL_ROW_168_5216
*19522 TAP_TAPCELL_ROW_168_5217
*19523 TAP_TAPCELL_ROW_168_5218
*19524 TAP_TAPCELL_ROW_168_5219
*19525 TAP_TAPCELL_ROW_169_5220
*19526 TAP_TAPCELL_ROW_169_5221
*19527 TAP_TAPCELL_ROW_169_5222
*19528 TAP_TAPCELL_ROW_169_5223
*19529 TAP_TAPCELL_ROW_169_5224
*19530 TAP_TAPCELL_ROW_169_5225
*19531 TAP_TAPCELL_ROW_169_5226
*19532 TAP_TAPCELL_ROW_169_5227
*19533 TAP_TAPCELL_ROW_169_5228
*19534 TAP_TAPCELL_ROW_169_5229
*19535 TAP_TAPCELL_ROW_169_5230
*19536 TAP_TAPCELL_ROW_169_5231
*19537 TAP_TAPCELL_ROW_169_5232
*19538 TAP_TAPCELL_ROW_169_5233
*19539 TAP_TAPCELL_ROW_169_5234
*19540 TAP_TAPCELL_ROW_169_5235
*19541 TAP_TAPCELL_ROW_169_5236
*19542 TAP_TAPCELL_ROW_169_5237
*19543 TAP_TAPCELL_ROW_169_5238
*19544 TAP_TAPCELL_ROW_169_5239
*19545 TAP_TAPCELL_ROW_169_5240
*19546 TAP_TAPCELL_ROW_169_5241
*19547 TAP_TAPCELL_ROW_169_5242
*19548 TAP_TAPCELL_ROW_169_5243
*19549 TAP_TAPCELL_ROW_169_5244
*19550 TAP_TAPCELL_ROW_169_5245
*19551 TAP_TAPCELL_ROW_169_5246
*19552 TAP_TAPCELL_ROW_16_1012
*19553 TAP_TAPCELL_ROW_16_1013
*19554 TAP_TAPCELL_ROW_16_1014
*19555 TAP_TAPCELL_ROW_16_1015
*19556 TAP_TAPCELL_ROW_16_1016
*19557 TAP_TAPCELL_ROW_16_1017
*19558 TAP_TAPCELL_ROW_16_1018
*19559 TAP_TAPCELL_ROW_16_1019
*19560 TAP_TAPCELL_ROW_16_1020
*19561 TAP_TAPCELL_ROW_16_1021
*19562 TAP_TAPCELL_ROW_16_1022
*19563 TAP_TAPCELL_ROW_16_1023
*19564 TAP_TAPCELL_ROW_16_1024
*19565 TAP_TAPCELL_ROW_16_1025
*19566 TAP_TAPCELL_ROW_16_1026
*19567 TAP_TAPCELL_ROW_16_1027
*19568 TAP_TAPCELL_ROW_16_1028
*19569 TAP_TAPCELL_ROW_16_1029
*19570 TAP_TAPCELL_ROW_16_1030
*19571 TAP_TAPCELL_ROW_16_1031
*19572 TAP_TAPCELL_ROW_16_1032
*19573 TAP_TAPCELL_ROW_16_1033
*19574 TAP_TAPCELL_ROW_16_1034
*19575 TAP_TAPCELL_ROW_16_1035
*19576 TAP_TAPCELL_ROW_16_1036
*19577 TAP_TAPCELL_ROW_16_1037
*19578 TAP_TAPCELL_ROW_16_1038
*19579 TAP_TAPCELL_ROW_16_1039
*19580 TAP_TAPCELL_ROW_170_5247
*19581 TAP_TAPCELL_ROW_170_5248
*19582 TAP_TAPCELL_ROW_170_5249
*19583 TAP_TAPCELL_ROW_170_5250
*19584 TAP_TAPCELL_ROW_170_5251
*19585 TAP_TAPCELL_ROW_170_5252
*19586 TAP_TAPCELL_ROW_170_5253
*19587 TAP_TAPCELL_ROW_170_5254
*19588 TAP_TAPCELL_ROW_170_5255
*19589 TAP_TAPCELL_ROW_170_5256
*19590 TAP_TAPCELL_ROW_170_5257
*19591 TAP_TAPCELL_ROW_170_5258
*19592 TAP_TAPCELL_ROW_170_5259
*19593 TAP_TAPCELL_ROW_170_5260
*19594 TAP_TAPCELL_ROW_170_5261
*19595 TAP_TAPCELL_ROW_170_5262
*19596 TAP_TAPCELL_ROW_170_5263
*19597 TAP_TAPCELL_ROW_170_5264
*19598 TAP_TAPCELL_ROW_170_5265
*19599 TAP_TAPCELL_ROW_170_5266
*19600 TAP_TAPCELL_ROW_170_5267
*19601 TAP_TAPCELL_ROW_170_5268
*19602 TAP_TAPCELL_ROW_170_5269
*19603 TAP_TAPCELL_ROW_170_5270
*19604 TAP_TAPCELL_ROW_170_5271
*19605 TAP_TAPCELL_ROW_170_5272
*19606 TAP_TAPCELL_ROW_170_5273
*19607 TAP_TAPCELL_ROW_170_5274
*19608 TAP_TAPCELL_ROW_171_5275
*19609 TAP_TAPCELL_ROW_171_5276
*19610 TAP_TAPCELL_ROW_171_5277
*19611 TAP_TAPCELL_ROW_171_5278
*19612 TAP_TAPCELL_ROW_171_5279
*19613 TAP_TAPCELL_ROW_171_5280
*19614 TAP_TAPCELL_ROW_171_5281
*19615 TAP_TAPCELL_ROW_171_5282
*19616 TAP_TAPCELL_ROW_171_5283
*19617 TAP_TAPCELL_ROW_171_5284
*19618 TAP_TAPCELL_ROW_171_5285
*19619 TAP_TAPCELL_ROW_171_5286
*19620 TAP_TAPCELL_ROW_171_5287
*19621 TAP_TAPCELL_ROW_171_5288
*19622 TAP_TAPCELL_ROW_171_5289
*19623 TAP_TAPCELL_ROW_171_5290
*19624 TAP_TAPCELL_ROW_171_5291
*19625 TAP_TAPCELL_ROW_171_5292
*19626 TAP_TAPCELL_ROW_171_5293
*19627 TAP_TAPCELL_ROW_171_5294
*19628 TAP_TAPCELL_ROW_171_5295
*19629 TAP_TAPCELL_ROW_171_5296
*19630 TAP_TAPCELL_ROW_171_5297
*19631 TAP_TAPCELL_ROW_171_5298
*19632 TAP_TAPCELL_ROW_171_5299
*19633 TAP_TAPCELL_ROW_171_5300
*19634 TAP_TAPCELL_ROW_171_5301
*19635 TAP_TAPCELL_ROW_172_5302
*19636 TAP_TAPCELL_ROW_172_5303
*19637 TAP_TAPCELL_ROW_172_5304
*19638 TAP_TAPCELL_ROW_172_5305
*19639 TAP_TAPCELL_ROW_172_5306
*19640 TAP_TAPCELL_ROW_172_5307
*19641 TAP_TAPCELL_ROW_172_5308
*19642 TAP_TAPCELL_ROW_172_5309
*19643 TAP_TAPCELL_ROW_172_5310
*19644 TAP_TAPCELL_ROW_172_5311
*19645 TAP_TAPCELL_ROW_172_5312
*19646 TAP_TAPCELL_ROW_172_5313
*19647 TAP_TAPCELL_ROW_172_5314
*19648 TAP_TAPCELL_ROW_172_5315
*19649 TAP_TAPCELL_ROW_172_5316
*19650 TAP_TAPCELL_ROW_172_5317
*19651 TAP_TAPCELL_ROW_172_5318
*19652 TAP_TAPCELL_ROW_172_5319
*19653 TAP_TAPCELL_ROW_172_5320
*19654 TAP_TAPCELL_ROW_172_5321
*19655 TAP_TAPCELL_ROW_172_5322
*19656 TAP_TAPCELL_ROW_172_5323
*19657 TAP_TAPCELL_ROW_172_5324
*19658 TAP_TAPCELL_ROW_172_5325
*19659 TAP_TAPCELL_ROW_172_5326
*19660 TAP_TAPCELL_ROW_172_5327
*19661 TAP_TAPCELL_ROW_172_5328
*19662 TAP_TAPCELL_ROW_172_5329
*19663 TAP_TAPCELL_ROW_173_5330
*19664 TAP_TAPCELL_ROW_173_5331
*19665 TAP_TAPCELL_ROW_173_5332
*19666 TAP_TAPCELL_ROW_173_5333
*19667 TAP_TAPCELL_ROW_173_5334
*19668 TAP_TAPCELL_ROW_173_5335
*19669 TAP_TAPCELL_ROW_173_5336
*19670 TAP_TAPCELL_ROW_173_5337
*19671 TAP_TAPCELL_ROW_173_5338
*19672 TAP_TAPCELL_ROW_173_5339
*19673 TAP_TAPCELL_ROW_173_5340
*19674 TAP_TAPCELL_ROW_173_5341
*19675 TAP_TAPCELL_ROW_173_5342
*19676 TAP_TAPCELL_ROW_173_5343
*19677 TAP_TAPCELL_ROW_173_5344
*19678 TAP_TAPCELL_ROW_173_5345
*19679 TAP_TAPCELL_ROW_173_5346
*19680 TAP_TAPCELL_ROW_173_5347
*19681 TAP_TAPCELL_ROW_173_5348
*19682 TAP_TAPCELL_ROW_173_5349
*19683 TAP_TAPCELL_ROW_173_5350
*19684 TAP_TAPCELL_ROW_173_5351
*19685 TAP_TAPCELL_ROW_173_5352
*19686 TAP_TAPCELL_ROW_173_5353
*19687 TAP_TAPCELL_ROW_173_5354
*19688 TAP_TAPCELL_ROW_173_5355
*19689 TAP_TAPCELL_ROW_173_5356
*19690 TAP_TAPCELL_ROW_174_5357
*19691 TAP_TAPCELL_ROW_174_5358
*19692 TAP_TAPCELL_ROW_174_5359
*19693 TAP_TAPCELL_ROW_174_5360
*19694 TAP_TAPCELL_ROW_174_5361
*19695 TAP_TAPCELL_ROW_174_5362
*19696 TAP_TAPCELL_ROW_174_5363
*19697 TAP_TAPCELL_ROW_174_5364
*19698 TAP_TAPCELL_ROW_174_5365
*19699 TAP_TAPCELL_ROW_174_5366
*19700 TAP_TAPCELL_ROW_174_5367
*19701 TAP_TAPCELL_ROW_174_5368
*19702 TAP_TAPCELL_ROW_174_5369
*19703 TAP_TAPCELL_ROW_174_5370
*19704 TAP_TAPCELL_ROW_174_5371
*19705 TAP_TAPCELL_ROW_174_5372
*19706 TAP_TAPCELL_ROW_174_5373
*19707 TAP_TAPCELL_ROW_174_5374
*19708 TAP_TAPCELL_ROW_174_5375
*19709 TAP_TAPCELL_ROW_174_5376
*19710 TAP_TAPCELL_ROW_174_5377
*19711 TAP_TAPCELL_ROW_174_5378
*19712 TAP_TAPCELL_ROW_174_5379
*19713 TAP_TAPCELL_ROW_174_5380
*19714 TAP_TAPCELL_ROW_174_5381
*19715 TAP_TAPCELL_ROW_174_5382
*19716 TAP_TAPCELL_ROW_174_5383
*19717 TAP_TAPCELL_ROW_174_5384
*19718 TAP_TAPCELL_ROW_175_5385
*19719 TAP_TAPCELL_ROW_175_5386
*19720 TAP_TAPCELL_ROW_175_5387
*19721 TAP_TAPCELL_ROW_175_5388
*19722 TAP_TAPCELL_ROW_175_5389
*19723 TAP_TAPCELL_ROW_175_5390
*19724 TAP_TAPCELL_ROW_175_5391
*19725 TAP_TAPCELL_ROW_175_5392
*19726 TAP_TAPCELL_ROW_175_5393
*19727 TAP_TAPCELL_ROW_175_5394
*19728 TAP_TAPCELL_ROW_175_5395
*19729 TAP_TAPCELL_ROW_175_5396
*19730 TAP_TAPCELL_ROW_175_5397
*19731 TAP_TAPCELL_ROW_175_5398
*19732 TAP_TAPCELL_ROW_175_5399
*19733 TAP_TAPCELL_ROW_175_5400
*19734 TAP_TAPCELL_ROW_175_5401
*19735 TAP_TAPCELL_ROW_175_5402
*19736 TAP_TAPCELL_ROW_175_5403
*19737 TAP_TAPCELL_ROW_175_5404
*19738 TAP_TAPCELL_ROW_175_5405
*19739 TAP_TAPCELL_ROW_175_5406
*19740 TAP_TAPCELL_ROW_175_5407
*19741 TAP_TAPCELL_ROW_175_5408
*19742 TAP_TAPCELL_ROW_175_5409
*19743 TAP_TAPCELL_ROW_175_5410
*19744 TAP_TAPCELL_ROW_175_5411
*19745 TAP_TAPCELL_ROW_176_5412
*19746 TAP_TAPCELL_ROW_176_5413
*19747 TAP_TAPCELL_ROW_176_5414
*19748 TAP_TAPCELL_ROW_176_5415
*19749 TAP_TAPCELL_ROW_176_5416
*19750 TAP_TAPCELL_ROW_176_5417
*19751 TAP_TAPCELL_ROW_176_5418
*19752 TAP_TAPCELL_ROW_176_5419
*19753 TAP_TAPCELL_ROW_176_5420
*19754 TAP_TAPCELL_ROW_176_5421
*19755 TAP_TAPCELL_ROW_176_5422
*19756 TAP_TAPCELL_ROW_176_5423
*19757 TAP_TAPCELL_ROW_176_5424
*19758 TAP_TAPCELL_ROW_176_5425
*19759 TAP_TAPCELL_ROW_176_5426
*19760 TAP_TAPCELL_ROW_176_5427
*19761 TAP_TAPCELL_ROW_176_5428
*19762 TAP_TAPCELL_ROW_176_5429
*19763 TAP_TAPCELL_ROW_176_5430
*19764 TAP_TAPCELL_ROW_176_5431
*19765 TAP_TAPCELL_ROW_176_5432
*19766 TAP_TAPCELL_ROW_176_5433
*19767 TAP_TAPCELL_ROW_176_5434
*19768 TAP_TAPCELL_ROW_176_5435
*19769 TAP_TAPCELL_ROW_176_5436
*19770 TAP_TAPCELL_ROW_176_5437
*19771 TAP_TAPCELL_ROW_176_5438
*19772 TAP_TAPCELL_ROW_176_5439
*19773 TAP_TAPCELL_ROW_177_5440
*19774 TAP_TAPCELL_ROW_177_5441
*19775 TAP_TAPCELL_ROW_177_5442
*19776 TAP_TAPCELL_ROW_177_5443
*19777 TAP_TAPCELL_ROW_177_5444
*19778 TAP_TAPCELL_ROW_177_5445
*19779 TAP_TAPCELL_ROW_177_5446
*19780 TAP_TAPCELL_ROW_177_5447
*19781 TAP_TAPCELL_ROW_177_5448
*19782 TAP_TAPCELL_ROW_177_5449
*19783 TAP_TAPCELL_ROW_177_5450
*19784 TAP_TAPCELL_ROW_177_5451
*19785 TAP_TAPCELL_ROW_177_5452
*19786 TAP_TAPCELL_ROW_177_5453
*19787 TAP_TAPCELL_ROW_177_5454
*19788 TAP_TAPCELL_ROW_177_5455
*19789 TAP_TAPCELL_ROW_177_5456
*19790 TAP_TAPCELL_ROW_177_5457
*19791 TAP_TAPCELL_ROW_177_5458
*19792 TAP_TAPCELL_ROW_177_5459
*19793 TAP_TAPCELL_ROW_177_5460
*19794 TAP_TAPCELL_ROW_177_5461
*19795 TAP_TAPCELL_ROW_177_5462
*19796 TAP_TAPCELL_ROW_177_5463
*19797 TAP_TAPCELL_ROW_177_5464
*19798 TAP_TAPCELL_ROW_177_5465
*19799 TAP_TAPCELL_ROW_177_5466
*19800 TAP_TAPCELL_ROW_178_5467
*19801 TAP_TAPCELL_ROW_178_5468
*19802 TAP_TAPCELL_ROW_178_5469
*19803 TAP_TAPCELL_ROW_178_5470
*19804 TAP_TAPCELL_ROW_178_5471
*19805 TAP_TAPCELL_ROW_178_5472
*19806 TAP_TAPCELL_ROW_178_5473
*19807 TAP_TAPCELL_ROW_178_5474
*19808 TAP_TAPCELL_ROW_178_5475
*19809 TAP_TAPCELL_ROW_178_5476
*19810 TAP_TAPCELL_ROW_178_5477
*19811 TAP_TAPCELL_ROW_178_5478
*19812 TAP_TAPCELL_ROW_178_5479
*19813 TAP_TAPCELL_ROW_178_5480
*19814 TAP_TAPCELL_ROW_178_5481
*19815 TAP_TAPCELL_ROW_178_5482
*19816 TAP_TAPCELL_ROW_178_5483
*19817 TAP_TAPCELL_ROW_178_5484
*19818 TAP_TAPCELL_ROW_178_5485
*19819 TAP_TAPCELL_ROW_178_5486
*19820 TAP_TAPCELL_ROW_178_5487
*19821 TAP_TAPCELL_ROW_178_5488
*19822 TAP_TAPCELL_ROW_178_5489
*19823 TAP_TAPCELL_ROW_178_5490
*19824 TAP_TAPCELL_ROW_178_5491
*19825 TAP_TAPCELL_ROW_178_5492
*19826 TAP_TAPCELL_ROW_178_5493
*19827 TAP_TAPCELL_ROW_178_5494
*19828 TAP_TAPCELL_ROW_179_5495
*19829 TAP_TAPCELL_ROW_179_5496
*19830 TAP_TAPCELL_ROW_179_5497
*19831 TAP_TAPCELL_ROW_179_5498
*19832 TAP_TAPCELL_ROW_179_5499
*19833 TAP_TAPCELL_ROW_179_5500
*19834 TAP_TAPCELL_ROW_179_5501
*19835 TAP_TAPCELL_ROW_179_5502
*19836 TAP_TAPCELL_ROW_179_5503
*19837 TAP_TAPCELL_ROW_179_5504
*19838 TAP_TAPCELL_ROW_179_5505
*19839 TAP_TAPCELL_ROW_179_5506
*19840 TAP_TAPCELL_ROW_179_5507
*19841 TAP_TAPCELL_ROW_179_5508
*19842 TAP_TAPCELL_ROW_179_5509
*19843 TAP_TAPCELL_ROW_179_5510
*19844 TAP_TAPCELL_ROW_179_5511
*19845 TAP_TAPCELL_ROW_179_5512
*19846 TAP_TAPCELL_ROW_179_5513
*19847 TAP_TAPCELL_ROW_179_5514
*19848 TAP_TAPCELL_ROW_179_5515
*19849 TAP_TAPCELL_ROW_179_5516
*19850 TAP_TAPCELL_ROW_179_5517
*19851 TAP_TAPCELL_ROW_179_5518
*19852 TAP_TAPCELL_ROW_179_5519
*19853 TAP_TAPCELL_ROW_179_5520
*19854 TAP_TAPCELL_ROW_179_5521
*19855 TAP_TAPCELL_ROW_17_1040
*19856 TAP_TAPCELL_ROW_17_1041
*19857 TAP_TAPCELL_ROW_17_1042
*19858 TAP_TAPCELL_ROW_17_1043
*19859 TAP_TAPCELL_ROW_17_1044
*19860 TAP_TAPCELL_ROW_17_1045
*19861 TAP_TAPCELL_ROW_17_1046
*19862 TAP_TAPCELL_ROW_17_1047
*19863 TAP_TAPCELL_ROW_17_1048
*19864 TAP_TAPCELL_ROW_17_1049
*19865 TAP_TAPCELL_ROW_17_1050
*19866 TAP_TAPCELL_ROW_17_1051
*19867 TAP_TAPCELL_ROW_17_1052
*19868 TAP_TAPCELL_ROW_17_1053
*19869 TAP_TAPCELL_ROW_17_1054
*19870 TAP_TAPCELL_ROW_17_1055
*19871 TAP_TAPCELL_ROW_17_1056
*19872 TAP_TAPCELL_ROW_17_1057
*19873 TAP_TAPCELL_ROW_17_1058
*19874 TAP_TAPCELL_ROW_17_1059
*19875 TAP_TAPCELL_ROW_17_1060
*19876 TAP_TAPCELL_ROW_17_1061
*19877 TAP_TAPCELL_ROW_17_1062
*19878 TAP_TAPCELL_ROW_17_1063
*19879 TAP_TAPCELL_ROW_17_1064
*19880 TAP_TAPCELL_ROW_17_1065
*19881 TAP_TAPCELL_ROW_17_1066
*19882 TAP_TAPCELL_ROW_180_5522
*19883 TAP_TAPCELL_ROW_180_5523
*19884 TAP_TAPCELL_ROW_180_5524
*19885 TAP_TAPCELL_ROW_180_5525
*19886 TAP_TAPCELL_ROW_180_5526
*19887 TAP_TAPCELL_ROW_180_5527
*19888 TAP_TAPCELL_ROW_180_5528
*19889 TAP_TAPCELL_ROW_180_5529
*19890 TAP_TAPCELL_ROW_180_5530
*19891 TAP_TAPCELL_ROW_180_5531
*19892 TAP_TAPCELL_ROW_180_5532
*19893 TAP_TAPCELL_ROW_180_5533
*19894 TAP_TAPCELL_ROW_180_5534
*19895 TAP_TAPCELL_ROW_180_5535
*19896 TAP_TAPCELL_ROW_180_5536
*19897 TAP_TAPCELL_ROW_180_5537
*19898 TAP_TAPCELL_ROW_180_5538
*19899 TAP_TAPCELL_ROW_180_5539
*19900 TAP_TAPCELL_ROW_180_5540
*19901 TAP_TAPCELL_ROW_180_5541
*19902 TAP_TAPCELL_ROW_180_5542
*19903 TAP_TAPCELL_ROW_180_5543
*19904 TAP_TAPCELL_ROW_180_5544
*19905 TAP_TAPCELL_ROW_180_5545
*19906 TAP_TAPCELL_ROW_180_5546
*19907 TAP_TAPCELL_ROW_180_5547
*19908 TAP_TAPCELL_ROW_180_5548
*19909 TAP_TAPCELL_ROW_180_5549
*19910 TAP_TAPCELL_ROW_181_5550
*19911 TAP_TAPCELL_ROW_181_5551
*19912 TAP_TAPCELL_ROW_181_5552
*19913 TAP_TAPCELL_ROW_181_5553
*19914 TAP_TAPCELL_ROW_181_5554
*19915 TAP_TAPCELL_ROW_181_5555
*19916 TAP_TAPCELL_ROW_181_5556
*19917 TAP_TAPCELL_ROW_181_5557
*19918 TAP_TAPCELL_ROW_181_5558
*19919 TAP_TAPCELL_ROW_181_5559
*19920 TAP_TAPCELL_ROW_181_5560
*19921 TAP_TAPCELL_ROW_181_5561
*19922 TAP_TAPCELL_ROW_181_5562
*19923 TAP_TAPCELL_ROW_181_5563
*19924 TAP_TAPCELL_ROW_181_5564
*19925 TAP_TAPCELL_ROW_181_5565
*19926 TAP_TAPCELL_ROW_181_5566
*19927 TAP_TAPCELL_ROW_181_5567
*19928 TAP_TAPCELL_ROW_181_5568
*19929 TAP_TAPCELL_ROW_181_5569
*19930 TAP_TAPCELL_ROW_181_5570
*19931 TAP_TAPCELL_ROW_181_5571
*19932 TAP_TAPCELL_ROW_181_5572
*19933 TAP_TAPCELL_ROW_181_5573
*19934 TAP_TAPCELL_ROW_181_5574
*19935 TAP_TAPCELL_ROW_181_5575
*19936 TAP_TAPCELL_ROW_181_5576
*19937 TAP_TAPCELL_ROW_182_5577
*19938 TAP_TAPCELL_ROW_182_5578
*19939 TAP_TAPCELL_ROW_182_5579
*19940 TAP_TAPCELL_ROW_182_5580
*19941 TAP_TAPCELL_ROW_182_5581
*19942 TAP_TAPCELL_ROW_182_5582
*19943 TAP_TAPCELL_ROW_182_5583
*19944 TAP_TAPCELL_ROW_182_5584
*19945 TAP_TAPCELL_ROW_182_5585
*19946 TAP_TAPCELL_ROW_182_5586
*19947 TAP_TAPCELL_ROW_182_5587
*19948 TAP_TAPCELL_ROW_182_5588
*19949 TAP_TAPCELL_ROW_182_5589
*19950 TAP_TAPCELL_ROW_182_5590
*19951 TAP_TAPCELL_ROW_182_5591
*19952 TAP_TAPCELL_ROW_182_5592
*19953 TAP_TAPCELL_ROW_182_5593
*19954 TAP_TAPCELL_ROW_182_5594
*19955 TAP_TAPCELL_ROW_182_5595
*19956 TAP_TAPCELL_ROW_182_5596
*19957 TAP_TAPCELL_ROW_182_5597
*19958 TAP_TAPCELL_ROW_182_5598
*19959 TAP_TAPCELL_ROW_182_5599
*19960 TAP_TAPCELL_ROW_182_5600
*19961 TAP_TAPCELL_ROW_182_5601
*19962 TAP_TAPCELL_ROW_182_5602
*19963 TAP_TAPCELL_ROW_182_5603
*19964 TAP_TAPCELL_ROW_182_5604
*19965 TAP_TAPCELL_ROW_183_5605
*19966 TAP_TAPCELL_ROW_183_5606
*19967 TAP_TAPCELL_ROW_183_5607
*19968 TAP_TAPCELL_ROW_183_5608
*19969 TAP_TAPCELL_ROW_183_5609
*19970 TAP_TAPCELL_ROW_183_5610
*19971 TAP_TAPCELL_ROW_183_5611
*19972 TAP_TAPCELL_ROW_183_5612
*19973 TAP_TAPCELL_ROW_183_5613
*19974 TAP_TAPCELL_ROW_183_5614
*19975 TAP_TAPCELL_ROW_183_5615
*19976 TAP_TAPCELL_ROW_183_5616
*19977 TAP_TAPCELL_ROW_183_5617
*19978 TAP_TAPCELL_ROW_183_5618
*19979 TAP_TAPCELL_ROW_183_5619
*19980 TAP_TAPCELL_ROW_183_5620
*19981 TAP_TAPCELL_ROW_183_5621
*19982 TAP_TAPCELL_ROW_183_5622
*19983 TAP_TAPCELL_ROW_183_5623
*19984 TAP_TAPCELL_ROW_183_5624
*19985 TAP_TAPCELL_ROW_183_5625
*19986 TAP_TAPCELL_ROW_183_5626
*19987 TAP_TAPCELL_ROW_183_5627
*19988 TAP_TAPCELL_ROW_183_5628
*19989 TAP_TAPCELL_ROW_183_5629
*19990 TAP_TAPCELL_ROW_183_5630
*19991 TAP_TAPCELL_ROW_183_5631
*19992 TAP_TAPCELL_ROW_184_5632
*19993 TAP_TAPCELL_ROW_184_5633
*19994 TAP_TAPCELL_ROW_184_5634
*19995 TAP_TAPCELL_ROW_184_5635
*19996 TAP_TAPCELL_ROW_184_5636
*19997 TAP_TAPCELL_ROW_184_5637
*19998 TAP_TAPCELL_ROW_184_5638
*19999 TAP_TAPCELL_ROW_184_5639
*20000 TAP_TAPCELL_ROW_184_5640
*20001 TAP_TAPCELL_ROW_184_5641
*20002 TAP_TAPCELL_ROW_184_5642
*20003 TAP_TAPCELL_ROW_184_5643
*20004 TAP_TAPCELL_ROW_184_5644
*20005 TAP_TAPCELL_ROW_184_5645
*20006 TAP_TAPCELL_ROW_184_5646
*20007 TAP_TAPCELL_ROW_184_5647
*20008 TAP_TAPCELL_ROW_184_5648
*20009 TAP_TAPCELL_ROW_184_5649
*20010 TAP_TAPCELL_ROW_184_5650
*20011 TAP_TAPCELL_ROW_184_5651
*20012 TAP_TAPCELL_ROW_184_5652
*20013 TAP_TAPCELL_ROW_184_5653
*20014 TAP_TAPCELL_ROW_184_5654
*20015 TAP_TAPCELL_ROW_184_5655
*20016 TAP_TAPCELL_ROW_184_5656
*20017 TAP_TAPCELL_ROW_184_5657
*20018 TAP_TAPCELL_ROW_184_5658
*20019 TAP_TAPCELL_ROW_184_5659
*20020 TAP_TAPCELL_ROW_185_5660
*20021 TAP_TAPCELL_ROW_185_5661
*20022 TAP_TAPCELL_ROW_185_5662
*20023 TAP_TAPCELL_ROW_185_5663
*20024 TAP_TAPCELL_ROW_185_5664
*20025 TAP_TAPCELL_ROW_185_5665
*20026 TAP_TAPCELL_ROW_185_5666
*20027 TAP_TAPCELL_ROW_185_5667
*20028 TAP_TAPCELL_ROW_185_5668
*20029 TAP_TAPCELL_ROW_185_5669
*20030 TAP_TAPCELL_ROW_185_5670
*20031 TAP_TAPCELL_ROW_185_5671
*20032 TAP_TAPCELL_ROW_185_5672
*20033 TAP_TAPCELL_ROW_185_5673
*20034 TAP_TAPCELL_ROW_185_5674
*20035 TAP_TAPCELL_ROW_185_5675
*20036 TAP_TAPCELL_ROW_185_5676
*20037 TAP_TAPCELL_ROW_185_5677
*20038 TAP_TAPCELL_ROW_185_5678
*20039 TAP_TAPCELL_ROW_185_5679
*20040 TAP_TAPCELL_ROW_185_5680
*20041 TAP_TAPCELL_ROW_185_5681
*20042 TAP_TAPCELL_ROW_185_5682
*20043 TAP_TAPCELL_ROW_185_5683
*20044 TAP_TAPCELL_ROW_185_5684
*20045 TAP_TAPCELL_ROW_185_5685
*20046 TAP_TAPCELL_ROW_185_5686
*20047 TAP_TAPCELL_ROW_186_5687
*20048 TAP_TAPCELL_ROW_186_5688
*20049 TAP_TAPCELL_ROW_186_5689
*20050 TAP_TAPCELL_ROW_186_5690
*20051 TAP_TAPCELL_ROW_186_5691
*20052 TAP_TAPCELL_ROW_186_5692
*20053 TAP_TAPCELL_ROW_186_5693
*20054 TAP_TAPCELL_ROW_186_5694
*20055 TAP_TAPCELL_ROW_186_5695
*20056 TAP_TAPCELL_ROW_186_5696
*20057 TAP_TAPCELL_ROW_186_5697
*20058 TAP_TAPCELL_ROW_186_5698
*20059 TAP_TAPCELL_ROW_186_5699
*20060 TAP_TAPCELL_ROW_186_5700
*20061 TAP_TAPCELL_ROW_186_5701
*20062 TAP_TAPCELL_ROW_186_5702
*20063 TAP_TAPCELL_ROW_186_5703
*20064 TAP_TAPCELL_ROW_186_5704
*20065 TAP_TAPCELL_ROW_186_5705
*20066 TAP_TAPCELL_ROW_186_5706
*20067 TAP_TAPCELL_ROW_186_5707
*20068 TAP_TAPCELL_ROW_186_5708
*20069 TAP_TAPCELL_ROW_186_5709
*20070 TAP_TAPCELL_ROW_186_5710
*20071 TAP_TAPCELL_ROW_186_5711
*20072 TAP_TAPCELL_ROW_186_5712
*20073 TAP_TAPCELL_ROW_186_5713
*20074 TAP_TAPCELL_ROW_186_5714
*20075 TAP_TAPCELL_ROW_187_5715
*20076 TAP_TAPCELL_ROW_187_5716
*20077 TAP_TAPCELL_ROW_187_5717
*20078 TAP_TAPCELL_ROW_187_5718
*20079 TAP_TAPCELL_ROW_187_5719
*20080 TAP_TAPCELL_ROW_187_5720
*20081 TAP_TAPCELL_ROW_187_5721
*20082 TAP_TAPCELL_ROW_187_5722
*20083 TAP_TAPCELL_ROW_187_5723
*20084 TAP_TAPCELL_ROW_187_5724
*20085 TAP_TAPCELL_ROW_187_5725
*20086 TAP_TAPCELL_ROW_187_5726
*20087 TAP_TAPCELL_ROW_187_5727
*20088 TAP_TAPCELL_ROW_187_5728
*20089 TAP_TAPCELL_ROW_187_5729
*20090 TAP_TAPCELL_ROW_187_5730
*20091 TAP_TAPCELL_ROW_187_5731
*20092 TAP_TAPCELL_ROW_187_5732
*20093 TAP_TAPCELL_ROW_187_5733
*20094 TAP_TAPCELL_ROW_187_5734
*20095 TAP_TAPCELL_ROW_187_5735
*20096 TAP_TAPCELL_ROW_187_5736
*20097 TAP_TAPCELL_ROW_187_5737
*20098 TAP_TAPCELL_ROW_187_5738
*20099 TAP_TAPCELL_ROW_187_5739
*20100 TAP_TAPCELL_ROW_187_5740
*20101 TAP_TAPCELL_ROW_187_5741
*20102 TAP_TAPCELL_ROW_188_5742
*20103 TAP_TAPCELL_ROW_188_5743
*20104 TAP_TAPCELL_ROW_188_5744
*20105 TAP_TAPCELL_ROW_188_5745
*20106 TAP_TAPCELL_ROW_188_5746
*20107 TAP_TAPCELL_ROW_188_5747
*20108 TAP_TAPCELL_ROW_188_5748
*20109 TAP_TAPCELL_ROW_188_5749
*20110 TAP_TAPCELL_ROW_188_5750
*20111 TAP_TAPCELL_ROW_188_5751
*20112 TAP_TAPCELL_ROW_188_5752
*20113 TAP_TAPCELL_ROW_188_5753
*20114 TAP_TAPCELL_ROW_188_5754
*20115 TAP_TAPCELL_ROW_188_5755
*20116 TAP_TAPCELL_ROW_188_5756
*20117 TAP_TAPCELL_ROW_188_5757
*20118 TAP_TAPCELL_ROW_188_5758
*20119 TAP_TAPCELL_ROW_188_5759
*20120 TAP_TAPCELL_ROW_188_5760
*20121 TAP_TAPCELL_ROW_188_5761
*20122 TAP_TAPCELL_ROW_188_5762
*20123 TAP_TAPCELL_ROW_188_5763
*20124 TAP_TAPCELL_ROW_188_5764
*20125 TAP_TAPCELL_ROW_188_5765
*20126 TAP_TAPCELL_ROW_188_5766
*20127 TAP_TAPCELL_ROW_188_5767
*20128 TAP_TAPCELL_ROW_188_5768
*20129 TAP_TAPCELL_ROW_188_5769
*20130 TAP_TAPCELL_ROW_189_5770
*20131 TAP_TAPCELL_ROW_189_5771
*20132 TAP_TAPCELL_ROW_189_5772
*20133 TAP_TAPCELL_ROW_189_5773
*20134 TAP_TAPCELL_ROW_189_5774
*20135 TAP_TAPCELL_ROW_189_5775
*20136 TAP_TAPCELL_ROW_189_5776
*20137 TAP_TAPCELL_ROW_189_5777
*20138 TAP_TAPCELL_ROW_189_5778
*20139 TAP_TAPCELL_ROW_189_5779
*20140 TAP_TAPCELL_ROW_189_5780
*20141 TAP_TAPCELL_ROW_189_5781
*20142 TAP_TAPCELL_ROW_189_5782
*20143 TAP_TAPCELL_ROW_189_5783
*20144 TAP_TAPCELL_ROW_189_5784
*20145 TAP_TAPCELL_ROW_189_5785
*20146 TAP_TAPCELL_ROW_189_5786
*20147 TAP_TAPCELL_ROW_189_5787
*20148 TAP_TAPCELL_ROW_189_5788
*20149 TAP_TAPCELL_ROW_189_5789
*20150 TAP_TAPCELL_ROW_189_5790
*20151 TAP_TAPCELL_ROW_189_5791
*20152 TAP_TAPCELL_ROW_189_5792
*20153 TAP_TAPCELL_ROW_189_5793
*20154 TAP_TAPCELL_ROW_189_5794
*20155 TAP_TAPCELL_ROW_189_5795
*20156 TAP_TAPCELL_ROW_189_5796
*20157 TAP_TAPCELL_ROW_18_1067
*20158 TAP_TAPCELL_ROW_18_1068
*20159 TAP_TAPCELL_ROW_18_1069
*20160 TAP_TAPCELL_ROW_18_1070
*20161 TAP_TAPCELL_ROW_18_1071
*20162 TAP_TAPCELL_ROW_18_1072
*20163 TAP_TAPCELL_ROW_18_1073
*20164 TAP_TAPCELL_ROW_18_1074
*20165 TAP_TAPCELL_ROW_18_1075
*20166 TAP_TAPCELL_ROW_18_1076
*20167 TAP_TAPCELL_ROW_18_1077
*20168 TAP_TAPCELL_ROW_18_1078
*20169 TAP_TAPCELL_ROW_18_1079
*20170 TAP_TAPCELL_ROW_18_1080
*20171 TAP_TAPCELL_ROW_18_1081
*20172 TAP_TAPCELL_ROW_18_1082
*20173 TAP_TAPCELL_ROW_18_1083
*20174 TAP_TAPCELL_ROW_18_1084
*20175 TAP_TAPCELL_ROW_18_1085
*20176 TAP_TAPCELL_ROW_18_1086
*20177 TAP_TAPCELL_ROW_18_1087
*20178 TAP_TAPCELL_ROW_18_1088
*20179 TAP_TAPCELL_ROW_18_1089
*20180 TAP_TAPCELL_ROW_18_1090
*20181 TAP_TAPCELL_ROW_18_1091
*20182 TAP_TAPCELL_ROW_18_1092
*20183 TAP_TAPCELL_ROW_18_1093
*20184 TAP_TAPCELL_ROW_18_1094
*20185 TAP_TAPCELL_ROW_190_5797
*20186 TAP_TAPCELL_ROW_190_5798
*20187 TAP_TAPCELL_ROW_190_5799
*20188 TAP_TAPCELL_ROW_190_5800
*20189 TAP_TAPCELL_ROW_190_5801
*20190 TAP_TAPCELL_ROW_190_5802
*20191 TAP_TAPCELL_ROW_190_5803
*20192 TAP_TAPCELL_ROW_190_5804
*20193 TAP_TAPCELL_ROW_190_5805
*20194 TAP_TAPCELL_ROW_190_5806
*20195 TAP_TAPCELL_ROW_190_5807
*20196 TAP_TAPCELL_ROW_190_5808
*20197 TAP_TAPCELL_ROW_190_5809
*20198 TAP_TAPCELL_ROW_190_5810
*20199 TAP_TAPCELL_ROW_190_5811
*20200 TAP_TAPCELL_ROW_190_5812
*20201 TAP_TAPCELL_ROW_190_5813
*20202 TAP_TAPCELL_ROW_190_5814
*20203 TAP_TAPCELL_ROW_190_5815
*20204 TAP_TAPCELL_ROW_190_5816
*20205 TAP_TAPCELL_ROW_190_5817
*20206 TAP_TAPCELL_ROW_190_5818
*20207 TAP_TAPCELL_ROW_190_5819
*20208 TAP_TAPCELL_ROW_190_5820
*20209 TAP_TAPCELL_ROW_190_5821
*20210 TAP_TAPCELL_ROW_190_5822
*20211 TAP_TAPCELL_ROW_190_5823
*20212 TAP_TAPCELL_ROW_190_5824
*20213 TAP_TAPCELL_ROW_191_5825
*20214 TAP_TAPCELL_ROW_191_5826
*20215 TAP_TAPCELL_ROW_191_5827
*20216 TAP_TAPCELL_ROW_191_5828
*20217 TAP_TAPCELL_ROW_191_5829
*20218 TAP_TAPCELL_ROW_191_5830
*20219 TAP_TAPCELL_ROW_191_5831
*20220 TAP_TAPCELL_ROW_191_5832
*20221 TAP_TAPCELL_ROW_191_5833
*20222 TAP_TAPCELL_ROW_191_5834
*20223 TAP_TAPCELL_ROW_191_5835
*20224 TAP_TAPCELL_ROW_191_5836
*20225 TAP_TAPCELL_ROW_191_5837
*20226 TAP_TAPCELL_ROW_191_5838
*20227 TAP_TAPCELL_ROW_191_5839
*20228 TAP_TAPCELL_ROW_191_5840
*20229 TAP_TAPCELL_ROW_191_5841
*20230 TAP_TAPCELL_ROW_191_5842
*20231 TAP_TAPCELL_ROW_191_5843
*20232 TAP_TAPCELL_ROW_191_5844
*20233 TAP_TAPCELL_ROW_191_5845
*20234 TAP_TAPCELL_ROW_191_5846
*20235 TAP_TAPCELL_ROW_191_5847
*20236 TAP_TAPCELL_ROW_191_5848
*20237 TAP_TAPCELL_ROW_191_5849
*20238 TAP_TAPCELL_ROW_191_5850
*20239 TAP_TAPCELL_ROW_191_5851
*20240 TAP_TAPCELL_ROW_192_5852
*20241 TAP_TAPCELL_ROW_192_5853
*20242 TAP_TAPCELL_ROW_192_5854
*20243 TAP_TAPCELL_ROW_192_5855
*20244 TAP_TAPCELL_ROW_192_5856
*20245 TAP_TAPCELL_ROW_192_5857
*20246 TAP_TAPCELL_ROW_192_5858
*20247 TAP_TAPCELL_ROW_192_5859
*20248 TAP_TAPCELL_ROW_192_5860
*20249 TAP_TAPCELL_ROW_192_5861
*20250 TAP_TAPCELL_ROW_192_5862
*20251 TAP_TAPCELL_ROW_192_5863
*20252 TAP_TAPCELL_ROW_192_5864
*20253 TAP_TAPCELL_ROW_192_5865
*20254 TAP_TAPCELL_ROW_192_5866
*20255 TAP_TAPCELL_ROW_192_5867
*20256 TAP_TAPCELL_ROW_192_5868
*20257 TAP_TAPCELL_ROW_192_5869
*20258 TAP_TAPCELL_ROW_192_5870
*20259 TAP_TAPCELL_ROW_192_5871
*20260 TAP_TAPCELL_ROW_192_5872
*20261 TAP_TAPCELL_ROW_192_5873
*20262 TAP_TAPCELL_ROW_192_5874
*20263 TAP_TAPCELL_ROW_192_5875
*20264 TAP_TAPCELL_ROW_192_5876
*20265 TAP_TAPCELL_ROW_192_5877
*20266 TAP_TAPCELL_ROW_192_5878
*20267 TAP_TAPCELL_ROW_192_5879
*20268 TAP_TAPCELL_ROW_193_5880
*20269 TAP_TAPCELL_ROW_193_5881
*20270 TAP_TAPCELL_ROW_193_5882
*20271 TAP_TAPCELL_ROW_193_5883
*20272 TAP_TAPCELL_ROW_193_5884
*20273 TAP_TAPCELL_ROW_193_5885
*20274 TAP_TAPCELL_ROW_193_5886
*20275 TAP_TAPCELL_ROW_193_5887
*20276 TAP_TAPCELL_ROW_193_5888
*20277 TAP_TAPCELL_ROW_193_5889
*20278 TAP_TAPCELL_ROW_193_5890
*20279 TAP_TAPCELL_ROW_193_5891
*20280 TAP_TAPCELL_ROW_193_5892
*20281 TAP_TAPCELL_ROW_193_5893
*20282 TAP_TAPCELL_ROW_193_5894
*20283 TAP_TAPCELL_ROW_193_5895
*20284 TAP_TAPCELL_ROW_193_5896
*20285 TAP_TAPCELL_ROW_193_5897
*20286 TAP_TAPCELL_ROW_193_5898
*20287 TAP_TAPCELL_ROW_193_5899
*20288 TAP_TAPCELL_ROW_193_5900
*20289 TAP_TAPCELL_ROW_193_5901
*20290 TAP_TAPCELL_ROW_193_5902
*20291 TAP_TAPCELL_ROW_193_5903
*20292 TAP_TAPCELL_ROW_193_5904
*20293 TAP_TAPCELL_ROW_193_5905
*20294 TAP_TAPCELL_ROW_193_5906
*20295 TAP_TAPCELL_ROW_194_5907
*20296 TAP_TAPCELL_ROW_194_5908
*20297 TAP_TAPCELL_ROW_194_5909
*20298 TAP_TAPCELL_ROW_194_5910
*20299 TAP_TAPCELL_ROW_194_5911
*20300 TAP_TAPCELL_ROW_194_5912
*20301 TAP_TAPCELL_ROW_194_5913
*20302 TAP_TAPCELL_ROW_194_5914
*20303 TAP_TAPCELL_ROW_194_5915
*20304 TAP_TAPCELL_ROW_194_5916
*20305 TAP_TAPCELL_ROW_194_5917
*20306 TAP_TAPCELL_ROW_194_5918
*20307 TAP_TAPCELL_ROW_194_5919
*20308 TAP_TAPCELL_ROW_194_5920
*20309 TAP_TAPCELL_ROW_194_5921
*20310 TAP_TAPCELL_ROW_194_5922
*20311 TAP_TAPCELL_ROW_194_5923
*20312 TAP_TAPCELL_ROW_194_5924
*20313 TAP_TAPCELL_ROW_194_5925
*20314 TAP_TAPCELL_ROW_194_5926
*20315 TAP_TAPCELL_ROW_194_5927
*20316 TAP_TAPCELL_ROW_194_5928
*20317 TAP_TAPCELL_ROW_194_5929
*20318 TAP_TAPCELL_ROW_194_5930
*20319 TAP_TAPCELL_ROW_194_5931
*20320 TAP_TAPCELL_ROW_194_5932
*20321 TAP_TAPCELL_ROW_194_5933
*20322 TAP_TAPCELL_ROW_194_5934
*20323 TAP_TAPCELL_ROW_195_5935
*20324 TAP_TAPCELL_ROW_195_5936
*20325 TAP_TAPCELL_ROW_195_5937
*20326 TAP_TAPCELL_ROW_195_5938
*20327 TAP_TAPCELL_ROW_195_5939
*20328 TAP_TAPCELL_ROW_195_5940
*20329 TAP_TAPCELL_ROW_195_5941
*20330 TAP_TAPCELL_ROW_195_5942
*20331 TAP_TAPCELL_ROW_195_5943
*20332 TAP_TAPCELL_ROW_195_5944
*20333 TAP_TAPCELL_ROW_195_5945
*20334 TAP_TAPCELL_ROW_195_5946
*20335 TAP_TAPCELL_ROW_195_5947
*20336 TAP_TAPCELL_ROW_195_5948
*20337 TAP_TAPCELL_ROW_195_5949
*20338 TAP_TAPCELL_ROW_195_5950
*20339 TAP_TAPCELL_ROW_195_5951
*20340 TAP_TAPCELL_ROW_195_5952
*20341 TAP_TAPCELL_ROW_195_5953
*20342 TAP_TAPCELL_ROW_195_5954
*20343 TAP_TAPCELL_ROW_195_5955
*20344 TAP_TAPCELL_ROW_195_5956
*20345 TAP_TAPCELL_ROW_195_5957
*20346 TAP_TAPCELL_ROW_195_5958
*20347 TAP_TAPCELL_ROW_195_5959
*20348 TAP_TAPCELL_ROW_195_5960
*20349 TAP_TAPCELL_ROW_195_5961
*20350 TAP_TAPCELL_ROW_196_5962
*20351 TAP_TAPCELL_ROW_196_5963
*20352 TAP_TAPCELL_ROW_196_5964
*20353 TAP_TAPCELL_ROW_196_5965
*20354 TAP_TAPCELL_ROW_196_5966
*20355 TAP_TAPCELL_ROW_196_5967
*20356 TAP_TAPCELL_ROW_196_5968
*20357 TAP_TAPCELL_ROW_196_5969
*20358 TAP_TAPCELL_ROW_196_5970
*20359 TAP_TAPCELL_ROW_196_5971
*20360 TAP_TAPCELL_ROW_196_5972
*20361 TAP_TAPCELL_ROW_196_5973
*20362 TAP_TAPCELL_ROW_196_5974
*20363 TAP_TAPCELL_ROW_196_5975
*20364 TAP_TAPCELL_ROW_196_5976
*20365 TAP_TAPCELL_ROW_196_5977
*20366 TAP_TAPCELL_ROW_196_5978
*20367 TAP_TAPCELL_ROW_196_5979
*20368 TAP_TAPCELL_ROW_196_5980
*20369 TAP_TAPCELL_ROW_196_5981
*20370 TAP_TAPCELL_ROW_196_5982
*20371 TAP_TAPCELL_ROW_196_5983
*20372 TAP_TAPCELL_ROW_196_5984
*20373 TAP_TAPCELL_ROW_196_5985
*20374 TAP_TAPCELL_ROW_196_5986
*20375 TAP_TAPCELL_ROW_196_5987
*20376 TAP_TAPCELL_ROW_196_5988
*20377 TAP_TAPCELL_ROW_196_5989
*20378 TAP_TAPCELL_ROW_197_5990
*20379 TAP_TAPCELL_ROW_197_5991
*20380 TAP_TAPCELL_ROW_197_5992
*20381 TAP_TAPCELL_ROW_197_5993
*20382 TAP_TAPCELL_ROW_197_5994
*20383 TAP_TAPCELL_ROW_197_5995
*20384 TAP_TAPCELL_ROW_197_5996
*20385 TAP_TAPCELL_ROW_197_5997
*20386 TAP_TAPCELL_ROW_197_5998
*20387 TAP_TAPCELL_ROW_197_5999
*20388 TAP_TAPCELL_ROW_197_6000
*20389 TAP_TAPCELL_ROW_197_6001
*20390 TAP_TAPCELL_ROW_197_6002
*20391 TAP_TAPCELL_ROW_197_6003
*20392 TAP_TAPCELL_ROW_197_6004
*20393 TAP_TAPCELL_ROW_197_6005
*20394 TAP_TAPCELL_ROW_197_6006
*20395 TAP_TAPCELL_ROW_197_6007
*20396 TAP_TAPCELL_ROW_197_6008
*20397 TAP_TAPCELL_ROW_197_6009
*20398 TAP_TAPCELL_ROW_197_6010
*20399 TAP_TAPCELL_ROW_197_6011
*20400 TAP_TAPCELL_ROW_197_6012
*20401 TAP_TAPCELL_ROW_197_6013
*20402 TAP_TAPCELL_ROW_197_6014
*20403 TAP_TAPCELL_ROW_197_6015
*20404 TAP_TAPCELL_ROW_197_6016
*20405 TAP_TAPCELL_ROW_198_6017
*20406 TAP_TAPCELL_ROW_198_6018
*20407 TAP_TAPCELL_ROW_198_6019
*20408 TAP_TAPCELL_ROW_198_6020
*20409 TAP_TAPCELL_ROW_198_6021
*20410 TAP_TAPCELL_ROW_198_6022
*20411 TAP_TAPCELL_ROW_198_6023
*20412 TAP_TAPCELL_ROW_198_6024
*20413 TAP_TAPCELL_ROW_198_6025
*20414 TAP_TAPCELL_ROW_198_6026
*20415 TAP_TAPCELL_ROW_198_6027
*20416 TAP_TAPCELL_ROW_198_6028
*20417 TAP_TAPCELL_ROW_198_6029
*20418 TAP_TAPCELL_ROW_198_6030
*20419 TAP_TAPCELL_ROW_198_6031
*20420 TAP_TAPCELL_ROW_198_6032
*20421 TAP_TAPCELL_ROW_198_6033
*20422 TAP_TAPCELL_ROW_198_6034
*20423 TAP_TAPCELL_ROW_198_6035
*20424 TAP_TAPCELL_ROW_198_6036
*20425 TAP_TAPCELL_ROW_198_6037
*20426 TAP_TAPCELL_ROW_198_6038
*20427 TAP_TAPCELL_ROW_198_6039
*20428 TAP_TAPCELL_ROW_198_6040
*20429 TAP_TAPCELL_ROW_198_6041
*20430 TAP_TAPCELL_ROW_198_6042
*20431 TAP_TAPCELL_ROW_198_6043
*20432 TAP_TAPCELL_ROW_198_6044
*20433 TAP_TAPCELL_ROW_199_6045
*20434 TAP_TAPCELL_ROW_199_6046
*20435 TAP_TAPCELL_ROW_199_6047
*20436 TAP_TAPCELL_ROW_199_6048
*20437 TAP_TAPCELL_ROW_199_6049
*20438 TAP_TAPCELL_ROW_199_6050
*20439 TAP_TAPCELL_ROW_199_6051
*20440 TAP_TAPCELL_ROW_199_6052
*20441 TAP_TAPCELL_ROW_199_6053
*20442 TAP_TAPCELL_ROW_199_6054
*20443 TAP_TAPCELL_ROW_199_6055
*20444 TAP_TAPCELL_ROW_199_6056
*20445 TAP_TAPCELL_ROW_199_6057
*20446 TAP_TAPCELL_ROW_199_6058
*20447 TAP_TAPCELL_ROW_199_6059
*20448 TAP_TAPCELL_ROW_199_6060
*20449 TAP_TAPCELL_ROW_199_6061
*20450 TAP_TAPCELL_ROW_199_6062
*20451 TAP_TAPCELL_ROW_199_6063
*20452 TAP_TAPCELL_ROW_199_6064
*20453 TAP_TAPCELL_ROW_199_6065
*20454 TAP_TAPCELL_ROW_199_6066
*20455 TAP_TAPCELL_ROW_199_6067
*20456 TAP_TAPCELL_ROW_199_6068
*20457 TAP_TAPCELL_ROW_199_6069
*20458 TAP_TAPCELL_ROW_199_6070
*20459 TAP_TAPCELL_ROW_199_6071
*20460 TAP_TAPCELL_ROW_19_1095
*20461 TAP_TAPCELL_ROW_19_1096
*20462 TAP_TAPCELL_ROW_19_1097
*20463 TAP_TAPCELL_ROW_19_1098
*20464 TAP_TAPCELL_ROW_19_1099
*20465 TAP_TAPCELL_ROW_19_1100
*20466 TAP_TAPCELL_ROW_19_1101
*20467 TAP_TAPCELL_ROW_19_1102
*20468 TAP_TAPCELL_ROW_19_1103
*20469 TAP_TAPCELL_ROW_19_1104
*20470 TAP_TAPCELL_ROW_19_1105
*20471 TAP_TAPCELL_ROW_19_1106
*20472 TAP_TAPCELL_ROW_19_1107
*20473 TAP_TAPCELL_ROW_19_1108
*20474 TAP_TAPCELL_ROW_19_1109
*20475 TAP_TAPCELL_ROW_19_1110
*20476 TAP_TAPCELL_ROW_19_1111
*20477 TAP_TAPCELL_ROW_19_1112
*20478 TAP_TAPCELL_ROW_19_1113
*20479 TAP_TAPCELL_ROW_19_1114
*20480 TAP_TAPCELL_ROW_19_1115
*20481 TAP_TAPCELL_ROW_19_1116
*20482 TAP_TAPCELL_ROW_19_1117
*20483 TAP_TAPCELL_ROW_19_1118
*20484 TAP_TAPCELL_ROW_19_1119
*20485 TAP_TAPCELL_ROW_19_1120
*20486 TAP_TAPCELL_ROW_19_1121
*20487 TAP_TAPCELL_ROW_1_600
*20488 TAP_TAPCELL_ROW_1_601
*20489 TAP_TAPCELL_ROW_1_602
*20490 TAP_TAPCELL_ROW_1_603
*20491 TAP_TAPCELL_ROW_1_604
*20492 TAP_TAPCELL_ROW_1_605
*20493 TAP_TAPCELL_ROW_1_606
*20494 TAP_TAPCELL_ROW_1_607
*20495 TAP_TAPCELL_ROW_1_608
*20496 TAP_TAPCELL_ROW_1_609
*20497 TAP_TAPCELL_ROW_1_610
*20498 TAP_TAPCELL_ROW_1_611
*20499 TAP_TAPCELL_ROW_1_612
*20500 TAP_TAPCELL_ROW_1_613
*20501 TAP_TAPCELL_ROW_1_614
*20502 TAP_TAPCELL_ROW_1_615
*20503 TAP_TAPCELL_ROW_1_616
*20504 TAP_TAPCELL_ROW_1_617
*20505 TAP_TAPCELL_ROW_1_618
*20506 TAP_TAPCELL_ROW_1_619
*20507 TAP_TAPCELL_ROW_1_620
*20508 TAP_TAPCELL_ROW_1_621
*20509 TAP_TAPCELL_ROW_1_622
*20510 TAP_TAPCELL_ROW_1_623
*20511 TAP_TAPCELL_ROW_1_624
*20512 TAP_TAPCELL_ROW_1_625
*20513 TAP_TAPCELL_ROW_1_626
*20514 TAP_TAPCELL_ROW_200_6072
*20515 TAP_TAPCELL_ROW_200_6073
*20516 TAP_TAPCELL_ROW_200_6074
*20517 TAP_TAPCELL_ROW_200_6075
*20518 TAP_TAPCELL_ROW_200_6076
*20519 TAP_TAPCELL_ROW_200_6077
*20520 TAP_TAPCELL_ROW_200_6078
*20521 TAP_TAPCELL_ROW_200_6079
*20522 TAP_TAPCELL_ROW_200_6080
*20523 TAP_TAPCELL_ROW_200_6081
*20524 TAP_TAPCELL_ROW_200_6082
*20525 TAP_TAPCELL_ROW_200_6083
*20526 TAP_TAPCELL_ROW_200_6084
*20527 TAP_TAPCELL_ROW_200_6085
*20528 TAP_TAPCELL_ROW_200_6086
*20529 TAP_TAPCELL_ROW_200_6087
*20530 TAP_TAPCELL_ROW_200_6088
*20531 TAP_TAPCELL_ROW_200_6089
*20532 TAP_TAPCELL_ROW_200_6090
*20533 TAP_TAPCELL_ROW_200_6091
*20534 TAP_TAPCELL_ROW_200_6092
*20535 TAP_TAPCELL_ROW_200_6093
*20536 TAP_TAPCELL_ROW_200_6094
*20537 TAP_TAPCELL_ROW_200_6095
*20538 TAP_TAPCELL_ROW_200_6096
*20539 TAP_TAPCELL_ROW_200_6097
*20540 TAP_TAPCELL_ROW_200_6098
*20541 TAP_TAPCELL_ROW_200_6099
*20542 TAP_TAPCELL_ROW_201_6100
*20543 TAP_TAPCELL_ROW_201_6101
*20544 TAP_TAPCELL_ROW_201_6102
*20545 TAP_TAPCELL_ROW_201_6103
*20546 TAP_TAPCELL_ROW_201_6104
*20547 TAP_TAPCELL_ROW_201_6105
*20548 TAP_TAPCELL_ROW_201_6106
*20549 TAP_TAPCELL_ROW_201_6107
*20550 TAP_TAPCELL_ROW_201_6108
*20551 TAP_TAPCELL_ROW_201_6109
*20552 TAP_TAPCELL_ROW_201_6110
*20553 TAP_TAPCELL_ROW_201_6111
*20554 TAP_TAPCELL_ROW_201_6112
*20555 TAP_TAPCELL_ROW_201_6113
*20556 TAP_TAPCELL_ROW_201_6114
*20557 TAP_TAPCELL_ROW_201_6115
*20558 TAP_TAPCELL_ROW_201_6116
*20559 TAP_TAPCELL_ROW_201_6117
*20560 TAP_TAPCELL_ROW_201_6118
*20561 TAP_TAPCELL_ROW_201_6119
*20562 TAP_TAPCELL_ROW_201_6120
*20563 TAP_TAPCELL_ROW_201_6121
*20564 TAP_TAPCELL_ROW_201_6122
*20565 TAP_TAPCELL_ROW_201_6123
*20566 TAP_TAPCELL_ROW_201_6124
*20567 TAP_TAPCELL_ROW_201_6125
*20568 TAP_TAPCELL_ROW_201_6126
*20569 TAP_TAPCELL_ROW_202_6127
*20570 TAP_TAPCELL_ROW_202_6128
*20571 TAP_TAPCELL_ROW_202_6129
*20572 TAP_TAPCELL_ROW_202_6130
*20573 TAP_TAPCELL_ROW_202_6131
*20574 TAP_TAPCELL_ROW_202_6132
*20575 TAP_TAPCELL_ROW_202_6133
*20576 TAP_TAPCELL_ROW_202_6134
*20577 TAP_TAPCELL_ROW_202_6135
*20578 TAP_TAPCELL_ROW_202_6136
*20579 TAP_TAPCELL_ROW_202_6137
*20580 TAP_TAPCELL_ROW_202_6138
*20581 TAP_TAPCELL_ROW_202_6139
*20582 TAP_TAPCELL_ROW_202_6140
*20583 TAP_TAPCELL_ROW_202_6141
*20584 TAP_TAPCELL_ROW_202_6142
*20585 TAP_TAPCELL_ROW_202_6143
*20586 TAP_TAPCELL_ROW_202_6144
*20587 TAP_TAPCELL_ROW_202_6145
*20588 TAP_TAPCELL_ROW_202_6146
*20589 TAP_TAPCELL_ROW_202_6147
*20590 TAP_TAPCELL_ROW_202_6148
*20591 TAP_TAPCELL_ROW_202_6149
*20592 TAP_TAPCELL_ROW_202_6150
*20593 TAP_TAPCELL_ROW_202_6151
*20594 TAP_TAPCELL_ROW_202_6152
*20595 TAP_TAPCELL_ROW_202_6153
*20596 TAP_TAPCELL_ROW_202_6154
*20597 TAP_TAPCELL_ROW_203_6155
*20598 TAP_TAPCELL_ROW_203_6156
*20599 TAP_TAPCELL_ROW_203_6157
*20600 TAP_TAPCELL_ROW_203_6158
*20601 TAP_TAPCELL_ROW_203_6159
*20602 TAP_TAPCELL_ROW_203_6160
*20603 TAP_TAPCELL_ROW_203_6161
*20604 TAP_TAPCELL_ROW_203_6162
*20605 TAP_TAPCELL_ROW_203_6163
*20606 TAP_TAPCELL_ROW_203_6164
*20607 TAP_TAPCELL_ROW_203_6165
*20608 TAP_TAPCELL_ROW_203_6166
*20609 TAP_TAPCELL_ROW_203_6167
*20610 TAP_TAPCELL_ROW_203_6168
*20611 TAP_TAPCELL_ROW_203_6169
*20612 TAP_TAPCELL_ROW_203_6170
*20613 TAP_TAPCELL_ROW_203_6171
*20614 TAP_TAPCELL_ROW_203_6172
*20615 TAP_TAPCELL_ROW_203_6173
*20616 TAP_TAPCELL_ROW_203_6174
*20617 TAP_TAPCELL_ROW_203_6175
*20618 TAP_TAPCELL_ROW_203_6176
*20619 TAP_TAPCELL_ROW_203_6177
*20620 TAP_TAPCELL_ROW_203_6178
*20621 TAP_TAPCELL_ROW_203_6179
*20622 TAP_TAPCELL_ROW_203_6180
*20623 TAP_TAPCELL_ROW_203_6181
*20624 TAP_TAPCELL_ROW_204_6182
*20625 TAP_TAPCELL_ROW_204_6183
*20626 TAP_TAPCELL_ROW_204_6184
*20627 TAP_TAPCELL_ROW_204_6185
*20628 TAP_TAPCELL_ROW_204_6186
*20629 TAP_TAPCELL_ROW_204_6187
*20630 TAP_TAPCELL_ROW_204_6188
*20631 TAP_TAPCELL_ROW_204_6189
*20632 TAP_TAPCELL_ROW_204_6190
*20633 TAP_TAPCELL_ROW_204_6191
*20634 TAP_TAPCELL_ROW_204_6192
*20635 TAP_TAPCELL_ROW_204_6193
*20636 TAP_TAPCELL_ROW_204_6194
*20637 TAP_TAPCELL_ROW_204_6195
*20638 TAP_TAPCELL_ROW_204_6196
*20639 TAP_TAPCELL_ROW_204_6197
*20640 TAP_TAPCELL_ROW_204_6198
*20641 TAP_TAPCELL_ROW_204_6199
*20642 TAP_TAPCELL_ROW_204_6200
*20643 TAP_TAPCELL_ROW_204_6201
*20644 TAP_TAPCELL_ROW_204_6202
*20645 TAP_TAPCELL_ROW_204_6203
*20646 TAP_TAPCELL_ROW_204_6204
*20647 TAP_TAPCELL_ROW_204_6205
*20648 TAP_TAPCELL_ROW_204_6206
*20649 TAP_TAPCELL_ROW_204_6207
*20650 TAP_TAPCELL_ROW_204_6208
*20651 TAP_TAPCELL_ROW_204_6209
*20652 TAP_TAPCELL_ROW_205_6210
*20653 TAP_TAPCELL_ROW_205_6211
*20654 TAP_TAPCELL_ROW_205_6212
*20655 TAP_TAPCELL_ROW_205_6213
*20656 TAP_TAPCELL_ROW_205_6214
*20657 TAP_TAPCELL_ROW_205_6215
*20658 TAP_TAPCELL_ROW_205_6216
*20659 TAP_TAPCELL_ROW_205_6217
*20660 TAP_TAPCELL_ROW_205_6218
*20661 TAP_TAPCELL_ROW_205_6219
*20662 TAP_TAPCELL_ROW_205_6220
*20663 TAP_TAPCELL_ROW_205_6221
*20664 TAP_TAPCELL_ROW_205_6222
*20665 TAP_TAPCELL_ROW_205_6223
*20666 TAP_TAPCELL_ROW_205_6224
*20667 TAP_TAPCELL_ROW_205_6225
*20668 TAP_TAPCELL_ROW_205_6226
*20669 TAP_TAPCELL_ROW_205_6227
*20670 TAP_TAPCELL_ROW_205_6228
*20671 TAP_TAPCELL_ROW_205_6229
*20672 TAP_TAPCELL_ROW_205_6230
*20673 TAP_TAPCELL_ROW_205_6231
*20674 TAP_TAPCELL_ROW_205_6232
*20675 TAP_TAPCELL_ROW_205_6233
*20676 TAP_TAPCELL_ROW_205_6234
*20677 TAP_TAPCELL_ROW_205_6235
*20678 TAP_TAPCELL_ROW_205_6236
*20679 TAP_TAPCELL_ROW_206_6237
*20680 TAP_TAPCELL_ROW_206_6238
*20681 TAP_TAPCELL_ROW_206_6239
*20682 TAP_TAPCELL_ROW_206_6240
*20683 TAP_TAPCELL_ROW_206_6241
*20684 TAP_TAPCELL_ROW_206_6242
*20685 TAP_TAPCELL_ROW_206_6243
*20686 TAP_TAPCELL_ROW_206_6244
*20687 TAP_TAPCELL_ROW_206_6245
*20688 TAP_TAPCELL_ROW_206_6246
*20689 TAP_TAPCELL_ROW_206_6247
*20690 TAP_TAPCELL_ROW_206_6248
*20691 TAP_TAPCELL_ROW_206_6249
*20692 TAP_TAPCELL_ROW_206_6250
*20693 TAP_TAPCELL_ROW_206_6251
*20694 TAP_TAPCELL_ROW_206_6252
*20695 TAP_TAPCELL_ROW_206_6253
*20696 TAP_TAPCELL_ROW_206_6254
*20697 TAP_TAPCELL_ROW_206_6255
*20698 TAP_TAPCELL_ROW_206_6256
*20699 TAP_TAPCELL_ROW_206_6257
*20700 TAP_TAPCELL_ROW_206_6258
*20701 TAP_TAPCELL_ROW_206_6259
*20702 TAP_TAPCELL_ROW_206_6260
*20703 TAP_TAPCELL_ROW_206_6261
*20704 TAP_TAPCELL_ROW_206_6262
*20705 TAP_TAPCELL_ROW_206_6263
*20706 TAP_TAPCELL_ROW_206_6264
*20707 TAP_TAPCELL_ROW_207_6265
*20708 TAP_TAPCELL_ROW_207_6266
*20709 TAP_TAPCELL_ROW_207_6267
*20710 TAP_TAPCELL_ROW_207_6268
*20711 TAP_TAPCELL_ROW_207_6269
*20712 TAP_TAPCELL_ROW_207_6270
*20713 TAP_TAPCELL_ROW_207_6271
*20714 TAP_TAPCELL_ROW_207_6272
*20715 TAP_TAPCELL_ROW_207_6273
*20716 TAP_TAPCELL_ROW_207_6274
*20717 TAP_TAPCELL_ROW_207_6275
*20718 TAP_TAPCELL_ROW_207_6276
*20719 TAP_TAPCELL_ROW_207_6277
*20720 TAP_TAPCELL_ROW_207_6278
*20721 TAP_TAPCELL_ROW_207_6279
*20722 TAP_TAPCELL_ROW_207_6280
*20723 TAP_TAPCELL_ROW_207_6281
*20724 TAP_TAPCELL_ROW_207_6282
*20725 TAP_TAPCELL_ROW_207_6283
*20726 TAP_TAPCELL_ROW_207_6284
*20727 TAP_TAPCELL_ROW_207_6285
*20728 TAP_TAPCELL_ROW_207_6286
*20729 TAP_TAPCELL_ROW_207_6287
*20730 TAP_TAPCELL_ROW_207_6288
*20731 TAP_TAPCELL_ROW_207_6289
*20732 TAP_TAPCELL_ROW_207_6290
*20733 TAP_TAPCELL_ROW_207_6291
*20734 TAP_TAPCELL_ROW_208_6292
*20735 TAP_TAPCELL_ROW_208_6293
*20736 TAP_TAPCELL_ROW_208_6294
*20737 TAP_TAPCELL_ROW_208_6295
*20738 TAP_TAPCELL_ROW_208_6296
*20739 TAP_TAPCELL_ROW_208_6297
*20740 TAP_TAPCELL_ROW_208_6298
*20741 TAP_TAPCELL_ROW_208_6299
*20742 TAP_TAPCELL_ROW_208_6300
*20743 TAP_TAPCELL_ROW_208_6301
*20744 TAP_TAPCELL_ROW_208_6302
*20745 TAP_TAPCELL_ROW_208_6303
*20746 TAP_TAPCELL_ROW_208_6304
*20747 TAP_TAPCELL_ROW_208_6305
*20748 TAP_TAPCELL_ROW_208_6306
*20749 TAP_TAPCELL_ROW_208_6307
*20750 TAP_TAPCELL_ROW_208_6308
*20751 TAP_TAPCELL_ROW_208_6309
*20752 TAP_TAPCELL_ROW_208_6310
*20753 TAP_TAPCELL_ROW_208_6311
*20754 TAP_TAPCELL_ROW_208_6312
*20755 TAP_TAPCELL_ROW_208_6313
*20756 TAP_TAPCELL_ROW_208_6314
*20757 TAP_TAPCELL_ROW_208_6315
*20758 TAP_TAPCELL_ROW_208_6316
*20759 TAP_TAPCELL_ROW_208_6317
*20760 TAP_TAPCELL_ROW_208_6318
*20761 TAP_TAPCELL_ROW_208_6319
*20762 TAP_TAPCELL_ROW_209_6320
*20763 TAP_TAPCELL_ROW_209_6321
*20764 TAP_TAPCELL_ROW_209_6322
*20765 TAP_TAPCELL_ROW_209_6323
*20766 TAP_TAPCELL_ROW_209_6324
*20767 TAP_TAPCELL_ROW_209_6325
*20768 TAP_TAPCELL_ROW_209_6326
*20769 TAP_TAPCELL_ROW_209_6327
*20770 TAP_TAPCELL_ROW_209_6328
*20771 TAP_TAPCELL_ROW_209_6329
*20772 TAP_TAPCELL_ROW_209_6330
*20773 TAP_TAPCELL_ROW_209_6331
*20774 TAP_TAPCELL_ROW_209_6332
*20775 TAP_TAPCELL_ROW_209_6333
*20776 TAP_TAPCELL_ROW_209_6334
*20777 TAP_TAPCELL_ROW_209_6335
*20778 TAP_TAPCELL_ROW_209_6336
*20779 TAP_TAPCELL_ROW_209_6337
*20780 TAP_TAPCELL_ROW_209_6338
*20781 TAP_TAPCELL_ROW_209_6339
*20782 TAP_TAPCELL_ROW_209_6340
*20783 TAP_TAPCELL_ROW_209_6341
*20784 TAP_TAPCELL_ROW_209_6342
*20785 TAP_TAPCELL_ROW_209_6343
*20786 TAP_TAPCELL_ROW_209_6344
*20787 TAP_TAPCELL_ROW_209_6345
*20788 TAP_TAPCELL_ROW_209_6346
*20789 TAP_TAPCELL_ROW_20_1122
*20790 TAP_TAPCELL_ROW_20_1123
*20791 TAP_TAPCELL_ROW_20_1124
*20792 TAP_TAPCELL_ROW_20_1125
*20793 TAP_TAPCELL_ROW_20_1126
*20794 TAP_TAPCELL_ROW_20_1127
*20795 TAP_TAPCELL_ROW_20_1128
*20796 TAP_TAPCELL_ROW_20_1129
*20797 TAP_TAPCELL_ROW_20_1130
*20798 TAP_TAPCELL_ROW_20_1131
*20799 TAP_TAPCELL_ROW_20_1132
*20800 TAP_TAPCELL_ROW_20_1133
*20801 TAP_TAPCELL_ROW_20_1134
*20802 TAP_TAPCELL_ROW_20_1135
*20803 TAP_TAPCELL_ROW_20_1136
*20804 TAP_TAPCELL_ROW_20_1137
*20805 TAP_TAPCELL_ROW_20_1138
*20806 TAP_TAPCELL_ROW_20_1139
*20807 TAP_TAPCELL_ROW_20_1140
*20808 TAP_TAPCELL_ROW_20_1141
*20809 TAP_TAPCELL_ROW_20_1142
*20810 TAP_TAPCELL_ROW_20_1143
*20811 TAP_TAPCELL_ROW_20_1144
*20812 TAP_TAPCELL_ROW_20_1145
*20813 TAP_TAPCELL_ROW_20_1146
*20814 TAP_TAPCELL_ROW_20_1147
*20815 TAP_TAPCELL_ROW_20_1148
*20816 TAP_TAPCELL_ROW_20_1149
*20817 TAP_TAPCELL_ROW_210_6347
*20818 TAP_TAPCELL_ROW_210_6348
*20819 TAP_TAPCELL_ROW_210_6349
*20820 TAP_TAPCELL_ROW_210_6350
*20821 TAP_TAPCELL_ROW_210_6351
*20822 TAP_TAPCELL_ROW_210_6352
*20823 TAP_TAPCELL_ROW_210_6353
*20824 TAP_TAPCELL_ROW_210_6354
*20825 TAP_TAPCELL_ROW_210_6355
*20826 TAP_TAPCELL_ROW_210_6356
*20827 TAP_TAPCELL_ROW_210_6357
*20828 TAP_TAPCELL_ROW_210_6358
*20829 TAP_TAPCELL_ROW_210_6359
*20830 TAP_TAPCELL_ROW_210_6360
*20831 TAP_TAPCELL_ROW_210_6361
*20832 TAP_TAPCELL_ROW_210_6362
*20833 TAP_TAPCELL_ROW_210_6363
*20834 TAP_TAPCELL_ROW_210_6364
*20835 TAP_TAPCELL_ROW_210_6365
*20836 TAP_TAPCELL_ROW_210_6366
*20837 TAP_TAPCELL_ROW_210_6367
*20838 TAP_TAPCELL_ROW_210_6368
*20839 TAP_TAPCELL_ROW_210_6369
*20840 TAP_TAPCELL_ROW_210_6370
*20841 TAP_TAPCELL_ROW_210_6371
*20842 TAP_TAPCELL_ROW_210_6372
*20843 TAP_TAPCELL_ROW_210_6373
*20844 TAP_TAPCELL_ROW_210_6374
*20845 TAP_TAPCELL_ROW_211_6375
*20846 TAP_TAPCELL_ROW_211_6376
*20847 TAP_TAPCELL_ROW_211_6377
*20848 TAP_TAPCELL_ROW_211_6378
*20849 TAP_TAPCELL_ROW_211_6379
*20850 TAP_TAPCELL_ROW_211_6380
*20851 TAP_TAPCELL_ROW_211_6381
*20852 TAP_TAPCELL_ROW_211_6382
*20853 TAP_TAPCELL_ROW_211_6383
*20854 TAP_TAPCELL_ROW_211_6384
*20855 TAP_TAPCELL_ROW_211_6385
*20856 TAP_TAPCELL_ROW_211_6386
*20857 TAP_TAPCELL_ROW_211_6387
*20858 TAP_TAPCELL_ROW_211_6388
*20859 TAP_TAPCELL_ROW_211_6389
*20860 TAP_TAPCELL_ROW_211_6390
*20861 TAP_TAPCELL_ROW_211_6391
*20862 TAP_TAPCELL_ROW_211_6392
*20863 TAP_TAPCELL_ROW_211_6393
*20864 TAP_TAPCELL_ROW_211_6394
*20865 TAP_TAPCELL_ROW_211_6395
*20866 TAP_TAPCELL_ROW_211_6396
*20867 TAP_TAPCELL_ROW_211_6397
*20868 TAP_TAPCELL_ROW_211_6398
*20869 TAP_TAPCELL_ROW_211_6399
*20870 TAP_TAPCELL_ROW_211_6400
*20871 TAP_TAPCELL_ROW_211_6401
*20872 TAP_TAPCELL_ROW_212_6402
*20873 TAP_TAPCELL_ROW_212_6403
*20874 TAP_TAPCELL_ROW_212_6404
*20875 TAP_TAPCELL_ROW_212_6405
*20876 TAP_TAPCELL_ROW_212_6406
*20877 TAP_TAPCELL_ROW_212_6407
*20878 TAP_TAPCELL_ROW_212_6408
*20879 TAP_TAPCELL_ROW_212_6409
*20880 TAP_TAPCELL_ROW_212_6410
*20881 TAP_TAPCELL_ROW_212_6411
*20882 TAP_TAPCELL_ROW_212_6412
*20883 TAP_TAPCELL_ROW_212_6413
*20884 TAP_TAPCELL_ROW_212_6414
*20885 TAP_TAPCELL_ROW_212_6415
*20886 TAP_TAPCELL_ROW_212_6416
*20887 TAP_TAPCELL_ROW_212_6417
*20888 TAP_TAPCELL_ROW_212_6418
*20889 TAP_TAPCELL_ROW_212_6419
*20890 TAP_TAPCELL_ROW_212_6420
*20891 TAP_TAPCELL_ROW_212_6421
*20892 TAP_TAPCELL_ROW_212_6422
*20893 TAP_TAPCELL_ROW_212_6423
*20894 TAP_TAPCELL_ROW_212_6424
*20895 TAP_TAPCELL_ROW_212_6425
*20896 TAP_TAPCELL_ROW_212_6426
*20897 TAP_TAPCELL_ROW_212_6427
*20898 TAP_TAPCELL_ROW_212_6428
*20899 TAP_TAPCELL_ROW_212_6429
*20900 TAP_TAPCELL_ROW_213_6430
*20901 TAP_TAPCELL_ROW_213_6431
*20902 TAP_TAPCELL_ROW_213_6432
*20903 TAP_TAPCELL_ROW_213_6433
*20904 TAP_TAPCELL_ROW_213_6434
*20905 TAP_TAPCELL_ROW_213_6435
*20906 TAP_TAPCELL_ROW_213_6436
*20907 TAP_TAPCELL_ROW_213_6437
*20908 TAP_TAPCELL_ROW_213_6438
*20909 TAP_TAPCELL_ROW_213_6439
*20910 TAP_TAPCELL_ROW_213_6440
*20911 TAP_TAPCELL_ROW_213_6441
*20912 TAP_TAPCELL_ROW_213_6442
*20913 TAP_TAPCELL_ROW_213_6443
*20914 TAP_TAPCELL_ROW_213_6444
*20915 TAP_TAPCELL_ROW_213_6445
*20916 TAP_TAPCELL_ROW_213_6446
*20917 TAP_TAPCELL_ROW_213_6447
*20918 TAP_TAPCELL_ROW_213_6448
*20919 TAP_TAPCELL_ROW_213_6449
*20920 TAP_TAPCELL_ROW_213_6450
*20921 TAP_TAPCELL_ROW_213_6451
*20922 TAP_TAPCELL_ROW_213_6452
*20923 TAP_TAPCELL_ROW_213_6453
*20924 TAP_TAPCELL_ROW_213_6454
*20925 TAP_TAPCELL_ROW_213_6455
*20926 TAP_TAPCELL_ROW_213_6456
*20927 TAP_TAPCELL_ROW_214_6457
*20928 TAP_TAPCELL_ROW_214_6458
*20929 TAP_TAPCELL_ROW_214_6459
*20930 TAP_TAPCELL_ROW_214_6460
*20931 TAP_TAPCELL_ROW_214_6461
*20932 TAP_TAPCELL_ROW_214_6462
*20933 TAP_TAPCELL_ROW_214_6463
*20934 TAP_TAPCELL_ROW_214_6464
*20935 TAP_TAPCELL_ROW_214_6465
*20936 TAP_TAPCELL_ROW_214_6466
*20937 TAP_TAPCELL_ROW_214_6467
*20938 TAP_TAPCELL_ROW_214_6468
*20939 TAP_TAPCELL_ROW_214_6469
*20940 TAP_TAPCELL_ROW_214_6470
*20941 TAP_TAPCELL_ROW_214_6471
*20942 TAP_TAPCELL_ROW_214_6472
*20943 TAP_TAPCELL_ROW_214_6473
*20944 TAP_TAPCELL_ROW_214_6474
*20945 TAP_TAPCELL_ROW_214_6475
*20946 TAP_TAPCELL_ROW_214_6476
*20947 TAP_TAPCELL_ROW_214_6477
*20948 TAP_TAPCELL_ROW_214_6478
*20949 TAP_TAPCELL_ROW_214_6479
*20950 TAP_TAPCELL_ROW_214_6480
*20951 TAP_TAPCELL_ROW_214_6481
*20952 TAP_TAPCELL_ROW_214_6482
*20953 TAP_TAPCELL_ROW_214_6483
*20954 TAP_TAPCELL_ROW_214_6484
*20955 TAP_TAPCELL_ROW_215_6485
*20956 TAP_TAPCELL_ROW_215_6486
*20957 TAP_TAPCELL_ROW_215_6487
*20958 TAP_TAPCELL_ROW_215_6488
*20959 TAP_TAPCELL_ROW_215_6489
*20960 TAP_TAPCELL_ROW_215_6490
*20961 TAP_TAPCELL_ROW_215_6491
*20962 TAP_TAPCELL_ROW_215_6492
*20963 TAP_TAPCELL_ROW_215_6493
*20964 TAP_TAPCELL_ROW_215_6494
*20965 TAP_TAPCELL_ROW_215_6495
*20966 TAP_TAPCELL_ROW_215_6496
*20967 TAP_TAPCELL_ROW_215_6497
*20968 TAP_TAPCELL_ROW_215_6498
*20969 TAP_TAPCELL_ROW_215_6499
*20970 TAP_TAPCELL_ROW_215_6500
*20971 TAP_TAPCELL_ROW_215_6501
*20972 TAP_TAPCELL_ROW_215_6502
*20973 TAP_TAPCELL_ROW_215_6503
*20974 TAP_TAPCELL_ROW_215_6504
*20975 TAP_TAPCELL_ROW_215_6505
*20976 TAP_TAPCELL_ROW_215_6506
*20977 TAP_TAPCELL_ROW_215_6507
*20978 TAP_TAPCELL_ROW_215_6508
*20979 TAP_TAPCELL_ROW_215_6509
*20980 TAP_TAPCELL_ROW_215_6510
*20981 TAP_TAPCELL_ROW_215_6511
*20982 TAP_TAPCELL_ROW_216_6512
*20983 TAP_TAPCELL_ROW_216_6513
*20984 TAP_TAPCELL_ROW_216_6514
*20985 TAP_TAPCELL_ROW_216_6515
*20986 TAP_TAPCELL_ROW_216_6516
*20987 TAP_TAPCELL_ROW_216_6517
*20988 TAP_TAPCELL_ROW_216_6518
*20989 TAP_TAPCELL_ROW_216_6519
*20990 TAP_TAPCELL_ROW_216_6520
*20991 TAP_TAPCELL_ROW_216_6521
*20992 TAP_TAPCELL_ROW_216_6522
*20993 TAP_TAPCELL_ROW_216_6523
*20994 TAP_TAPCELL_ROW_216_6524
*20995 TAP_TAPCELL_ROW_216_6525
*20996 TAP_TAPCELL_ROW_216_6526
*20997 TAP_TAPCELL_ROW_216_6527
*20998 TAP_TAPCELL_ROW_216_6528
*20999 TAP_TAPCELL_ROW_216_6529
*21000 TAP_TAPCELL_ROW_216_6530
*21001 TAP_TAPCELL_ROW_216_6531
*21002 TAP_TAPCELL_ROW_216_6532
*21003 TAP_TAPCELL_ROW_216_6533
*21004 TAP_TAPCELL_ROW_216_6534
*21005 TAP_TAPCELL_ROW_216_6535
*21006 TAP_TAPCELL_ROW_216_6536
*21007 TAP_TAPCELL_ROW_216_6537
*21008 TAP_TAPCELL_ROW_216_6538
*21009 TAP_TAPCELL_ROW_216_6539
*21010 TAP_TAPCELL_ROW_217_6540
*21011 TAP_TAPCELL_ROW_217_6541
*21012 TAP_TAPCELL_ROW_217_6542
*21013 TAP_TAPCELL_ROW_217_6543
*21014 TAP_TAPCELL_ROW_217_6544
*21015 TAP_TAPCELL_ROW_217_6545
*21016 TAP_TAPCELL_ROW_217_6546
*21017 TAP_TAPCELL_ROW_217_6547
*21018 TAP_TAPCELL_ROW_217_6548
*21019 TAP_TAPCELL_ROW_217_6549
*21020 TAP_TAPCELL_ROW_217_6550
*21021 TAP_TAPCELL_ROW_217_6551
*21022 TAP_TAPCELL_ROW_217_6552
*21023 TAP_TAPCELL_ROW_217_6553
*21024 TAP_TAPCELL_ROW_217_6554
*21025 TAP_TAPCELL_ROW_217_6555
*21026 TAP_TAPCELL_ROW_217_6556
*21027 TAP_TAPCELL_ROW_217_6557
*21028 TAP_TAPCELL_ROW_217_6558
*21029 TAP_TAPCELL_ROW_217_6559
*21030 TAP_TAPCELL_ROW_217_6560
*21031 TAP_TAPCELL_ROW_217_6561
*21032 TAP_TAPCELL_ROW_217_6562
*21033 TAP_TAPCELL_ROW_217_6563
*21034 TAP_TAPCELL_ROW_217_6564
*21035 TAP_TAPCELL_ROW_217_6565
*21036 TAP_TAPCELL_ROW_217_6566
*21037 TAP_TAPCELL_ROW_218_6567
*21038 TAP_TAPCELL_ROW_218_6568
*21039 TAP_TAPCELL_ROW_218_6569
*21040 TAP_TAPCELL_ROW_218_6570
*21041 TAP_TAPCELL_ROW_218_6571
*21042 TAP_TAPCELL_ROW_218_6572
*21043 TAP_TAPCELL_ROW_218_6573
*21044 TAP_TAPCELL_ROW_218_6574
*21045 TAP_TAPCELL_ROW_218_6575
*21046 TAP_TAPCELL_ROW_218_6576
*21047 TAP_TAPCELL_ROW_218_6577
*21048 TAP_TAPCELL_ROW_218_6578
*21049 TAP_TAPCELL_ROW_218_6579
*21050 TAP_TAPCELL_ROW_218_6580
*21051 TAP_TAPCELL_ROW_218_6581
*21052 TAP_TAPCELL_ROW_218_6582
*21053 TAP_TAPCELL_ROW_218_6583
*21054 TAP_TAPCELL_ROW_218_6584
*21055 TAP_TAPCELL_ROW_218_6585
*21056 TAP_TAPCELL_ROW_218_6586
*21057 TAP_TAPCELL_ROW_218_6587
*21058 TAP_TAPCELL_ROW_218_6588
*21059 TAP_TAPCELL_ROW_218_6589
*21060 TAP_TAPCELL_ROW_218_6590
*21061 TAP_TAPCELL_ROW_218_6591
*21062 TAP_TAPCELL_ROW_218_6592
*21063 TAP_TAPCELL_ROW_218_6593
*21064 TAP_TAPCELL_ROW_218_6594
*21065 TAP_TAPCELL_ROW_219_6595
*21066 TAP_TAPCELL_ROW_219_6596
*21067 TAP_TAPCELL_ROW_219_6597
*21068 TAP_TAPCELL_ROW_219_6598
*21069 TAP_TAPCELL_ROW_219_6599
*21070 TAP_TAPCELL_ROW_219_6600
*21071 TAP_TAPCELL_ROW_219_6601
*21072 TAP_TAPCELL_ROW_219_6602
*21073 TAP_TAPCELL_ROW_219_6603
*21074 TAP_TAPCELL_ROW_219_6604
*21075 TAP_TAPCELL_ROW_219_6605
*21076 TAP_TAPCELL_ROW_219_6606
*21077 TAP_TAPCELL_ROW_219_6607
*21078 TAP_TAPCELL_ROW_219_6608
*21079 TAP_TAPCELL_ROW_219_6609
*21080 TAP_TAPCELL_ROW_219_6610
*21081 TAP_TAPCELL_ROW_219_6611
*21082 TAP_TAPCELL_ROW_219_6612
*21083 TAP_TAPCELL_ROW_219_6613
*21084 TAP_TAPCELL_ROW_219_6614
*21085 TAP_TAPCELL_ROW_219_6615
*21086 TAP_TAPCELL_ROW_219_6616
*21087 TAP_TAPCELL_ROW_219_6617
*21088 TAP_TAPCELL_ROW_219_6618
*21089 TAP_TAPCELL_ROW_219_6619
*21090 TAP_TAPCELL_ROW_219_6620
*21091 TAP_TAPCELL_ROW_219_6621
*21092 TAP_TAPCELL_ROW_21_1150
*21093 TAP_TAPCELL_ROW_21_1151
*21094 TAP_TAPCELL_ROW_21_1152
*21095 TAP_TAPCELL_ROW_21_1153
*21096 TAP_TAPCELL_ROW_21_1154
*21097 TAP_TAPCELL_ROW_21_1155
*21098 TAP_TAPCELL_ROW_21_1156
*21099 TAP_TAPCELL_ROW_21_1157
*21100 TAP_TAPCELL_ROW_21_1158
*21101 TAP_TAPCELL_ROW_21_1159
*21102 TAP_TAPCELL_ROW_21_1160
*21103 TAP_TAPCELL_ROW_21_1161
*21104 TAP_TAPCELL_ROW_21_1162
*21105 TAP_TAPCELL_ROW_21_1163
*21106 TAP_TAPCELL_ROW_21_1164
*21107 TAP_TAPCELL_ROW_21_1165
*21108 TAP_TAPCELL_ROW_21_1166
*21109 TAP_TAPCELL_ROW_21_1167
*21110 TAP_TAPCELL_ROW_21_1168
*21111 TAP_TAPCELL_ROW_21_1169
*21112 TAP_TAPCELL_ROW_21_1170
*21113 TAP_TAPCELL_ROW_21_1171
*21114 TAP_TAPCELL_ROW_21_1172
*21115 TAP_TAPCELL_ROW_21_1173
*21116 TAP_TAPCELL_ROW_21_1174
*21117 TAP_TAPCELL_ROW_21_1175
*21118 TAP_TAPCELL_ROW_21_1176
*21119 TAP_TAPCELL_ROW_220_6622
*21120 TAP_TAPCELL_ROW_220_6623
*21121 TAP_TAPCELL_ROW_220_6624
*21122 TAP_TAPCELL_ROW_220_6625
*21123 TAP_TAPCELL_ROW_220_6626
*21124 TAP_TAPCELL_ROW_220_6627
*21125 TAP_TAPCELL_ROW_220_6628
*21126 TAP_TAPCELL_ROW_220_6629
*21127 TAP_TAPCELL_ROW_220_6630
*21128 TAP_TAPCELL_ROW_220_6631
*21129 TAP_TAPCELL_ROW_220_6632
*21130 TAP_TAPCELL_ROW_220_6633
*21131 TAP_TAPCELL_ROW_220_6634
*21132 TAP_TAPCELL_ROW_220_6635
*21133 TAP_TAPCELL_ROW_220_6636
*21134 TAP_TAPCELL_ROW_220_6637
*21135 TAP_TAPCELL_ROW_220_6638
*21136 TAP_TAPCELL_ROW_220_6639
*21137 TAP_TAPCELL_ROW_220_6640
*21138 TAP_TAPCELL_ROW_220_6641
*21139 TAP_TAPCELL_ROW_220_6642
*21140 TAP_TAPCELL_ROW_220_6643
*21141 TAP_TAPCELL_ROW_220_6644
*21142 TAP_TAPCELL_ROW_220_6645
*21143 TAP_TAPCELL_ROW_220_6646
*21144 TAP_TAPCELL_ROW_220_6647
*21145 TAP_TAPCELL_ROW_220_6648
*21146 TAP_TAPCELL_ROW_220_6649
*21147 TAP_TAPCELL_ROW_221_6650
*21148 TAP_TAPCELL_ROW_221_6651
*21149 TAP_TAPCELL_ROW_221_6652
*21150 TAP_TAPCELL_ROW_221_6653
*21151 TAP_TAPCELL_ROW_221_6654
*21152 TAP_TAPCELL_ROW_221_6655
*21153 TAP_TAPCELL_ROW_221_6656
*21154 TAP_TAPCELL_ROW_221_6657
*21155 TAP_TAPCELL_ROW_221_6658
*21156 TAP_TAPCELL_ROW_221_6659
*21157 TAP_TAPCELL_ROW_221_6660
*21158 TAP_TAPCELL_ROW_221_6661
*21159 TAP_TAPCELL_ROW_221_6662
*21160 TAP_TAPCELL_ROW_221_6663
*21161 TAP_TAPCELL_ROW_221_6664
*21162 TAP_TAPCELL_ROW_221_6665
*21163 TAP_TAPCELL_ROW_221_6666
*21164 TAP_TAPCELL_ROW_221_6667
*21165 TAP_TAPCELL_ROW_221_6668
*21166 TAP_TAPCELL_ROW_221_6669
*21167 TAP_TAPCELL_ROW_221_6670
*21168 TAP_TAPCELL_ROW_221_6671
*21169 TAP_TAPCELL_ROW_221_6672
*21170 TAP_TAPCELL_ROW_221_6673
*21171 TAP_TAPCELL_ROW_221_6674
*21172 TAP_TAPCELL_ROW_221_6675
*21173 TAP_TAPCELL_ROW_221_6676
*21174 TAP_TAPCELL_ROW_222_6677
*21175 TAP_TAPCELL_ROW_222_6678
*21176 TAP_TAPCELL_ROW_222_6679
*21177 TAP_TAPCELL_ROW_222_6680
*21178 TAP_TAPCELL_ROW_222_6681
*21179 TAP_TAPCELL_ROW_222_6682
*21180 TAP_TAPCELL_ROW_222_6683
*21181 TAP_TAPCELL_ROW_222_6684
*21182 TAP_TAPCELL_ROW_222_6685
*21183 TAP_TAPCELL_ROW_222_6686
*21184 TAP_TAPCELL_ROW_222_6687
*21185 TAP_TAPCELL_ROW_222_6688
*21186 TAP_TAPCELL_ROW_222_6689
*21187 TAP_TAPCELL_ROW_222_6690
*21188 TAP_TAPCELL_ROW_222_6691
*21189 TAP_TAPCELL_ROW_222_6692
*21190 TAP_TAPCELL_ROW_222_6693
*21191 TAP_TAPCELL_ROW_222_6694
*21192 TAP_TAPCELL_ROW_222_6695
*21193 TAP_TAPCELL_ROW_222_6696
*21194 TAP_TAPCELL_ROW_222_6697
*21195 TAP_TAPCELL_ROW_222_6698
*21196 TAP_TAPCELL_ROW_222_6699
*21197 TAP_TAPCELL_ROW_222_6700
*21198 TAP_TAPCELL_ROW_222_6701
*21199 TAP_TAPCELL_ROW_222_6702
*21200 TAP_TAPCELL_ROW_222_6703
*21201 TAP_TAPCELL_ROW_222_6704
*21202 TAP_TAPCELL_ROW_223_6705
*21203 TAP_TAPCELL_ROW_223_6706
*21204 TAP_TAPCELL_ROW_223_6707
*21205 TAP_TAPCELL_ROW_223_6708
*21206 TAP_TAPCELL_ROW_223_6709
*21207 TAP_TAPCELL_ROW_223_6710
*21208 TAP_TAPCELL_ROW_223_6711
*21209 TAP_TAPCELL_ROW_223_6712
*21210 TAP_TAPCELL_ROW_223_6713
*21211 TAP_TAPCELL_ROW_223_6714
*21212 TAP_TAPCELL_ROW_223_6715
*21213 TAP_TAPCELL_ROW_223_6716
*21214 TAP_TAPCELL_ROW_223_6717
*21215 TAP_TAPCELL_ROW_223_6718
*21216 TAP_TAPCELL_ROW_223_6719
*21217 TAP_TAPCELL_ROW_223_6720
*21218 TAP_TAPCELL_ROW_223_6721
*21219 TAP_TAPCELL_ROW_223_6722
*21220 TAP_TAPCELL_ROW_223_6723
*21221 TAP_TAPCELL_ROW_223_6724
*21222 TAP_TAPCELL_ROW_223_6725
*21223 TAP_TAPCELL_ROW_223_6726
*21224 TAP_TAPCELL_ROW_223_6727
*21225 TAP_TAPCELL_ROW_223_6728
*21226 TAP_TAPCELL_ROW_223_6729
*21227 TAP_TAPCELL_ROW_223_6730
*21228 TAP_TAPCELL_ROW_223_6731
*21229 TAP_TAPCELL_ROW_224_6732
*21230 TAP_TAPCELL_ROW_224_6733
*21231 TAP_TAPCELL_ROW_224_6734
*21232 TAP_TAPCELL_ROW_224_6735
*21233 TAP_TAPCELL_ROW_224_6736
*21234 TAP_TAPCELL_ROW_224_6737
*21235 TAP_TAPCELL_ROW_224_6738
*21236 TAP_TAPCELL_ROW_224_6739
*21237 TAP_TAPCELL_ROW_224_6740
*21238 TAP_TAPCELL_ROW_224_6741
*21239 TAP_TAPCELL_ROW_224_6742
*21240 TAP_TAPCELL_ROW_224_6743
*21241 TAP_TAPCELL_ROW_224_6744
*21242 TAP_TAPCELL_ROW_224_6745
*21243 TAP_TAPCELL_ROW_224_6746
*21244 TAP_TAPCELL_ROW_224_6747
*21245 TAP_TAPCELL_ROW_224_6748
*21246 TAP_TAPCELL_ROW_224_6749
*21247 TAP_TAPCELL_ROW_224_6750
*21248 TAP_TAPCELL_ROW_224_6751
*21249 TAP_TAPCELL_ROW_224_6752
*21250 TAP_TAPCELL_ROW_224_6753
*21251 TAP_TAPCELL_ROW_224_6754
*21252 TAP_TAPCELL_ROW_224_6755
*21253 TAP_TAPCELL_ROW_224_6756
*21254 TAP_TAPCELL_ROW_224_6757
*21255 TAP_TAPCELL_ROW_224_6758
*21256 TAP_TAPCELL_ROW_224_6759
*21257 TAP_TAPCELL_ROW_225_6760
*21258 TAP_TAPCELL_ROW_225_6761
*21259 TAP_TAPCELL_ROW_225_6762
*21260 TAP_TAPCELL_ROW_225_6763
*21261 TAP_TAPCELL_ROW_225_6764
*21262 TAP_TAPCELL_ROW_225_6765
*21263 TAP_TAPCELL_ROW_225_6766
*21264 TAP_TAPCELL_ROW_225_6767
*21265 TAP_TAPCELL_ROW_225_6768
*21266 TAP_TAPCELL_ROW_225_6769
*21267 TAP_TAPCELL_ROW_225_6770
*21268 TAP_TAPCELL_ROW_225_6771
*21269 TAP_TAPCELL_ROW_225_6772
*21270 TAP_TAPCELL_ROW_225_6773
*21271 TAP_TAPCELL_ROW_225_6774
*21272 TAP_TAPCELL_ROW_225_6775
*21273 TAP_TAPCELL_ROW_225_6776
*21274 TAP_TAPCELL_ROW_225_6777
*21275 TAP_TAPCELL_ROW_225_6778
*21276 TAP_TAPCELL_ROW_225_6779
*21277 TAP_TAPCELL_ROW_225_6780
*21278 TAP_TAPCELL_ROW_225_6781
*21279 TAP_TAPCELL_ROW_225_6782
*21280 TAP_TAPCELL_ROW_225_6783
*21281 TAP_TAPCELL_ROW_225_6784
*21282 TAP_TAPCELL_ROW_225_6785
*21283 TAP_TAPCELL_ROW_225_6786
*21284 TAP_TAPCELL_ROW_226_6787
*21285 TAP_TAPCELL_ROW_226_6788
*21286 TAP_TAPCELL_ROW_226_6789
*21287 TAP_TAPCELL_ROW_226_6790
*21288 TAP_TAPCELL_ROW_226_6791
*21289 TAP_TAPCELL_ROW_226_6792
*21290 TAP_TAPCELL_ROW_226_6793
*21291 TAP_TAPCELL_ROW_226_6794
*21292 TAP_TAPCELL_ROW_226_6795
*21293 TAP_TAPCELL_ROW_226_6796
*21294 TAP_TAPCELL_ROW_226_6797
*21295 TAP_TAPCELL_ROW_226_6798
*21296 TAP_TAPCELL_ROW_226_6799
*21297 TAP_TAPCELL_ROW_226_6800
*21298 TAP_TAPCELL_ROW_226_6801
*21299 TAP_TAPCELL_ROW_226_6802
*21300 TAP_TAPCELL_ROW_226_6803
*21301 TAP_TAPCELL_ROW_226_6804
*21302 TAP_TAPCELL_ROW_226_6805
*21303 TAP_TAPCELL_ROW_226_6806
*21304 TAP_TAPCELL_ROW_226_6807
*21305 TAP_TAPCELL_ROW_226_6808
*21306 TAP_TAPCELL_ROW_226_6809
*21307 TAP_TAPCELL_ROW_226_6810
*21308 TAP_TAPCELL_ROW_226_6811
*21309 TAP_TAPCELL_ROW_226_6812
*21310 TAP_TAPCELL_ROW_226_6813
*21311 TAP_TAPCELL_ROW_226_6814
*21312 TAP_TAPCELL_ROW_227_6815
*21313 TAP_TAPCELL_ROW_227_6816
*21314 TAP_TAPCELL_ROW_227_6817
*21315 TAP_TAPCELL_ROW_227_6818
*21316 TAP_TAPCELL_ROW_227_6819
*21317 TAP_TAPCELL_ROW_227_6820
*21318 TAP_TAPCELL_ROW_227_6821
*21319 TAP_TAPCELL_ROW_227_6822
*21320 TAP_TAPCELL_ROW_227_6823
*21321 TAP_TAPCELL_ROW_227_6824
*21322 TAP_TAPCELL_ROW_227_6825
*21323 TAP_TAPCELL_ROW_227_6826
*21324 TAP_TAPCELL_ROW_227_6827
*21325 TAP_TAPCELL_ROW_227_6828
*21326 TAP_TAPCELL_ROW_227_6829
*21327 TAP_TAPCELL_ROW_227_6830
*21328 TAP_TAPCELL_ROW_227_6831
*21329 TAP_TAPCELL_ROW_227_6832
*21330 TAP_TAPCELL_ROW_227_6833
*21331 TAP_TAPCELL_ROW_227_6834
*21332 TAP_TAPCELL_ROW_227_6835
*21333 TAP_TAPCELL_ROW_227_6836
*21334 TAP_TAPCELL_ROW_227_6837
*21335 TAP_TAPCELL_ROW_227_6838
*21336 TAP_TAPCELL_ROW_227_6839
*21337 TAP_TAPCELL_ROW_227_6840
*21338 TAP_TAPCELL_ROW_227_6841
*21339 TAP_TAPCELL_ROW_228_6842
*21340 TAP_TAPCELL_ROW_228_6843
*21341 TAP_TAPCELL_ROW_228_6844
*21342 TAP_TAPCELL_ROW_228_6845
*21343 TAP_TAPCELL_ROW_228_6846
*21344 TAP_TAPCELL_ROW_228_6847
*21345 TAP_TAPCELL_ROW_228_6848
*21346 TAP_TAPCELL_ROW_228_6849
*21347 TAP_TAPCELL_ROW_228_6850
*21348 TAP_TAPCELL_ROW_228_6851
*21349 TAP_TAPCELL_ROW_228_6852
*21350 TAP_TAPCELL_ROW_228_6853
*21351 TAP_TAPCELL_ROW_228_6854
*21352 TAP_TAPCELL_ROW_228_6855
*21353 TAP_TAPCELL_ROW_228_6856
*21354 TAP_TAPCELL_ROW_228_6857
*21355 TAP_TAPCELL_ROW_228_6858
*21356 TAP_TAPCELL_ROW_228_6859
*21357 TAP_TAPCELL_ROW_228_6860
*21358 TAP_TAPCELL_ROW_228_6861
*21359 TAP_TAPCELL_ROW_228_6862
*21360 TAP_TAPCELL_ROW_228_6863
*21361 TAP_TAPCELL_ROW_228_6864
*21362 TAP_TAPCELL_ROW_228_6865
*21363 TAP_TAPCELL_ROW_228_6866
*21364 TAP_TAPCELL_ROW_228_6867
*21365 TAP_TAPCELL_ROW_228_6868
*21366 TAP_TAPCELL_ROW_228_6869
*21367 TAP_TAPCELL_ROW_229_6870
*21368 TAP_TAPCELL_ROW_229_6871
*21369 TAP_TAPCELL_ROW_229_6872
*21370 TAP_TAPCELL_ROW_229_6873
*21371 TAP_TAPCELL_ROW_229_6874
*21372 TAP_TAPCELL_ROW_229_6875
*21373 TAP_TAPCELL_ROW_229_6876
*21374 TAP_TAPCELL_ROW_229_6877
*21375 TAP_TAPCELL_ROW_229_6878
*21376 TAP_TAPCELL_ROW_229_6879
*21377 TAP_TAPCELL_ROW_229_6880
*21378 TAP_TAPCELL_ROW_229_6881
*21379 TAP_TAPCELL_ROW_229_6882
*21380 TAP_TAPCELL_ROW_229_6883
*21381 TAP_TAPCELL_ROW_229_6884
*21382 TAP_TAPCELL_ROW_229_6885
*21383 TAP_TAPCELL_ROW_229_6886
*21384 TAP_TAPCELL_ROW_229_6887
*21385 TAP_TAPCELL_ROW_229_6888
*21386 TAP_TAPCELL_ROW_229_6889
*21387 TAP_TAPCELL_ROW_229_6890
*21388 TAP_TAPCELL_ROW_229_6891
*21389 TAP_TAPCELL_ROW_229_6892
*21390 TAP_TAPCELL_ROW_229_6893
*21391 TAP_TAPCELL_ROW_229_6894
*21392 TAP_TAPCELL_ROW_229_6895
*21393 TAP_TAPCELL_ROW_229_6896
*21394 TAP_TAPCELL_ROW_22_1177
*21395 TAP_TAPCELL_ROW_22_1178
*21396 TAP_TAPCELL_ROW_22_1179
*21397 TAP_TAPCELL_ROW_22_1180
*21398 TAP_TAPCELL_ROW_22_1181
*21399 TAP_TAPCELL_ROW_22_1182
*21400 TAP_TAPCELL_ROW_22_1183
*21401 TAP_TAPCELL_ROW_22_1184
*21402 TAP_TAPCELL_ROW_22_1185
*21403 TAP_TAPCELL_ROW_22_1186
*21404 TAP_TAPCELL_ROW_22_1187
*21405 TAP_TAPCELL_ROW_22_1188
*21406 TAP_TAPCELL_ROW_22_1189
*21407 TAP_TAPCELL_ROW_22_1190
*21408 TAP_TAPCELL_ROW_22_1191
*21409 TAP_TAPCELL_ROW_22_1192
*21410 TAP_TAPCELL_ROW_22_1193
*21411 TAP_TAPCELL_ROW_22_1194
*21412 TAP_TAPCELL_ROW_22_1195
*21413 TAP_TAPCELL_ROW_22_1196
*21414 TAP_TAPCELL_ROW_22_1197
*21415 TAP_TAPCELL_ROW_22_1198
*21416 TAP_TAPCELL_ROW_22_1199
*21417 TAP_TAPCELL_ROW_22_1200
*21418 TAP_TAPCELL_ROW_22_1201
*21419 TAP_TAPCELL_ROW_22_1202
*21420 TAP_TAPCELL_ROW_22_1203
*21421 TAP_TAPCELL_ROW_22_1204
*21422 TAP_TAPCELL_ROW_230_6897
*21423 TAP_TAPCELL_ROW_230_6898
*21424 TAP_TAPCELL_ROW_230_6899
*21425 TAP_TAPCELL_ROW_230_6900
*21426 TAP_TAPCELL_ROW_230_6901
*21427 TAP_TAPCELL_ROW_230_6902
*21428 TAP_TAPCELL_ROW_230_6903
*21429 TAP_TAPCELL_ROW_230_6904
*21430 TAP_TAPCELL_ROW_230_6905
*21431 TAP_TAPCELL_ROW_230_6906
*21432 TAP_TAPCELL_ROW_230_6907
*21433 TAP_TAPCELL_ROW_230_6908
*21434 TAP_TAPCELL_ROW_230_6909
*21435 TAP_TAPCELL_ROW_230_6910
*21436 TAP_TAPCELL_ROW_230_6911
*21437 TAP_TAPCELL_ROW_230_6912
*21438 TAP_TAPCELL_ROW_230_6913
*21439 TAP_TAPCELL_ROW_230_6914
*21440 TAP_TAPCELL_ROW_230_6915
*21441 TAP_TAPCELL_ROW_230_6916
*21442 TAP_TAPCELL_ROW_230_6917
*21443 TAP_TAPCELL_ROW_230_6918
*21444 TAP_TAPCELL_ROW_230_6919
*21445 TAP_TAPCELL_ROW_230_6920
*21446 TAP_TAPCELL_ROW_230_6921
*21447 TAP_TAPCELL_ROW_230_6922
*21448 TAP_TAPCELL_ROW_230_6923
*21449 TAP_TAPCELL_ROW_230_6924
*21450 TAP_TAPCELL_ROW_231_6925
*21451 TAP_TAPCELL_ROW_231_6926
*21452 TAP_TAPCELL_ROW_231_6927
*21453 TAP_TAPCELL_ROW_231_6928
*21454 TAP_TAPCELL_ROW_231_6929
*21455 TAP_TAPCELL_ROW_231_6930
*21456 TAP_TAPCELL_ROW_231_6931
*21457 TAP_TAPCELL_ROW_231_6932
*21458 TAP_TAPCELL_ROW_231_6933
*21459 TAP_TAPCELL_ROW_231_6934
*21460 TAP_TAPCELL_ROW_231_6935
*21461 TAP_TAPCELL_ROW_231_6936
*21462 TAP_TAPCELL_ROW_231_6937
*21463 TAP_TAPCELL_ROW_231_6938
*21464 TAP_TAPCELL_ROW_231_6939
*21465 TAP_TAPCELL_ROW_231_6940
*21466 TAP_TAPCELL_ROW_231_6941
*21467 TAP_TAPCELL_ROW_231_6942
*21468 TAP_TAPCELL_ROW_231_6943
*21469 TAP_TAPCELL_ROW_231_6944
*21470 TAP_TAPCELL_ROW_231_6945
*21471 TAP_TAPCELL_ROW_231_6946
*21472 TAP_TAPCELL_ROW_231_6947
*21473 TAP_TAPCELL_ROW_231_6948
*21474 TAP_TAPCELL_ROW_231_6949
*21475 TAP_TAPCELL_ROW_231_6950
*21476 TAP_TAPCELL_ROW_231_6951
*21477 TAP_TAPCELL_ROW_232_6952
*21478 TAP_TAPCELL_ROW_232_6953
*21479 TAP_TAPCELL_ROW_232_6954
*21480 TAP_TAPCELL_ROW_232_6955
*21481 TAP_TAPCELL_ROW_232_6956
*21482 TAP_TAPCELL_ROW_232_6957
*21483 TAP_TAPCELL_ROW_232_6958
*21484 TAP_TAPCELL_ROW_232_6959
*21485 TAP_TAPCELL_ROW_232_6960
*21486 TAP_TAPCELL_ROW_232_6961
*21487 TAP_TAPCELL_ROW_232_6962
*21488 TAP_TAPCELL_ROW_232_6963
*21489 TAP_TAPCELL_ROW_232_6964
*21490 TAP_TAPCELL_ROW_232_6965
*21491 TAP_TAPCELL_ROW_232_6966
*21492 TAP_TAPCELL_ROW_232_6967
*21493 TAP_TAPCELL_ROW_232_6968
*21494 TAP_TAPCELL_ROW_232_6969
*21495 TAP_TAPCELL_ROW_232_6970
*21496 TAP_TAPCELL_ROW_232_6971
*21497 TAP_TAPCELL_ROW_232_6972
*21498 TAP_TAPCELL_ROW_232_6973
*21499 TAP_TAPCELL_ROW_232_6974
*21500 TAP_TAPCELL_ROW_232_6975
*21501 TAP_TAPCELL_ROW_232_6976
*21502 TAP_TAPCELL_ROW_232_6977
*21503 TAP_TAPCELL_ROW_232_6978
*21504 TAP_TAPCELL_ROW_232_6979
*21505 TAP_TAPCELL_ROW_233_6980
*21506 TAP_TAPCELL_ROW_233_6981
*21507 TAP_TAPCELL_ROW_233_6982
*21508 TAP_TAPCELL_ROW_233_6983
*21509 TAP_TAPCELL_ROW_233_6984
*21510 TAP_TAPCELL_ROW_233_6985
*21511 TAP_TAPCELL_ROW_233_6986
*21512 TAP_TAPCELL_ROW_233_6987
*21513 TAP_TAPCELL_ROW_233_6988
*21514 TAP_TAPCELL_ROW_233_6989
*21515 TAP_TAPCELL_ROW_233_6990
*21516 TAP_TAPCELL_ROW_233_6991
*21517 TAP_TAPCELL_ROW_233_6992
*21518 TAP_TAPCELL_ROW_233_6993
*21519 TAP_TAPCELL_ROW_233_6994
*21520 TAP_TAPCELL_ROW_233_6995
*21521 TAP_TAPCELL_ROW_233_6996
*21522 TAP_TAPCELL_ROW_233_6997
*21523 TAP_TAPCELL_ROW_233_6998
*21524 TAP_TAPCELL_ROW_233_6999
*21525 TAP_TAPCELL_ROW_233_7000
*21526 TAP_TAPCELL_ROW_233_7001
*21527 TAP_TAPCELL_ROW_233_7002
*21528 TAP_TAPCELL_ROW_233_7003
*21529 TAP_TAPCELL_ROW_233_7004
*21530 TAP_TAPCELL_ROW_233_7005
*21531 TAP_TAPCELL_ROW_233_7006
*21532 TAP_TAPCELL_ROW_234_7007
*21533 TAP_TAPCELL_ROW_234_7008
*21534 TAP_TAPCELL_ROW_234_7009
*21535 TAP_TAPCELL_ROW_234_7010
*21536 TAP_TAPCELL_ROW_234_7011
*21537 TAP_TAPCELL_ROW_234_7012
*21538 TAP_TAPCELL_ROW_234_7013
*21539 TAP_TAPCELL_ROW_234_7014
*21540 TAP_TAPCELL_ROW_234_7015
*21541 TAP_TAPCELL_ROW_234_7016
*21542 TAP_TAPCELL_ROW_234_7017
*21543 TAP_TAPCELL_ROW_234_7018
*21544 TAP_TAPCELL_ROW_234_7019
*21545 TAP_TAPCELL_ROW_234_7020
*21546 TAP_TAPCELL_ROW_234_7021
*21547 TAP_TAPCELL_ROW_234_7022
*21548 TAP_TAPCELL_ROW_234_7023
*21549 TAP_TAPCELL_ROW_234_7024
*21550 TAP_TAPCELL_ROW_234_7025
*21551 TAP_TAPCELL_ROW_234_7026
*21552 TAP_TAPCELL_ROW_234_7027
*21553 TAP_TAPCELL_ROW_234_7028
*21554 TAP_TAPCELL_ROW_234_7029
*21555 TAP_TAPCELL_ROW_234_7030
*21556 TAP_TAPCELL_ROW_234_7031
*21557 TAP_TAPCELL_ROW_234_7032
*21558 TAP_TAPCELL_ROW_234_7033
*21559 TAP_TAPCELL_ROW_234_7034
*21560 TAP_TAPCELL_ROW_235_7035
*21561 TAP_TAPCELL_ROW_235_7036
*21562 TAP_TAPCELL_ROW_235_7037
*21563 TAP_TAPCELL_ROW_235_7038
*21564 TAP_TAPCELL_ROW_235_7039
*21565 TAP_TAPCELL_ROW_235_7040
*21566 TAP_TAPCELL_ROW_235_7041
*21567 TAP_TAPCELL_ROW_235_7042
*21568 TAP_TAPCELL_ROW_235_7043
*21569 TAP_TAPCELL_ROW_235_7044
*21570 TAP_TAPCELL_ROW_235_7045
*21571 TAP_TAPCELL_ROW_235_7046
*21572 TAP_TAPCELL_ROW_235_7047
*21573 TAP_TAPCELL_ROW_235_7048
*21574 TAP_TAPCELL_ROW_235_7049
*21575 TAP_TAPCELL_ROW_235_7050
*21576 TAP_TAPCELL_ROW_235_7051
*21577 TAP_TAPCELL_ROW_235_7052
*21578 TAP_TAPCELL_ROW_235_7053
*21579 TAP_TAPCELL_ROW_235_7054
*21580 TAP_TAPCELL_ROW_235_7055
*21581 TAP_TAPCELL_ROW_235_7056
*21582 TAP_TAPCELL_ROW_235_7057
*21583 TAP_TAPCELL_ROW_235_7058
*21584 TAP_TAPCELL_ROW_235_7059
*21585 TAP_TAPCELL_ROW_235_7060
*21586 TAP_TAPCELL_ROW_235_7061
*21587 TAP_TAPCELL_ROW_236_7062
*21588 TAP_TAPCELL_ROW_236_7063
*21589 TAP_TAPCELL_ROW_236_7064
*21590 TAP_TAPCELL_ROW_236_7065
*21591 TAP_TAPCELL_ROW_236_7066
*21592 TAP_TAPCELL_ROW_236_7067
*21593 TAP_TAPCELL_ROW_236_7068
*21594 TAP_TAPCELL_ROW_236_7069
*21595 TAP_TAPCELL_ROW_236_7070
*21596 TAP_TAPCELL_ROW_236_7071
*21597 TAP_TAPCELL_ROW_236_7072
*21598 TAP_TAPCELL_ROW_236_7073
*21599 TAP_TAPCELL_ROW_236_7074
*21600 TAP_TAPCELL_ROW_236_7075
*21601 TAP_TAPCELL_ROW_236_7076
*21602 TAP_TAPCELL_ROW_236_7077
*21603 TAP_TAPCELL_ROW_236_7078
*21604 TAP_TAPCELL_ROW_236_7079
*21605 TAP_TAPCELL_ROW_236_7080
*21606 TAP_TAPCELL_ROW_236_7081
*21607 TAP_TAPCELL_ROW_236_7082
*21608 TAP_TAPCELL_ROW_236_7083
*21609 TAP_TAPCELL_ROW_236_7084
*21610 TAP_TAPCELL_ROW_236_7085
*21611 TAP_TAPCELL_ROW_236_7086
*21612 TAP_TAPCELL_ROW_236_7087
*21613 TAP_TAPCELL_ROW_236_7088
*21614 TAP_TAPCELL_ROW_236_7089
*21615 TAP_TAPCELL_ROW_237_7090
*21616 TAP_TAPCELL_ROW_237_7091
*21617 TAP_TAPCELL_ROW_237_7092
*21618 TAP_TAPCELL_ROW_237_7093
*21619 TAP_TAPCELL_ROW_237_7094
*21620 TAP_TAPCELL_ROW_237_7095
*21621 TAP_TAPCELL_ROW_237_7096
*21622 TAP_TAPCELL_ROW_237_7097
*21623 TAP_TAPCELL_ROW_237_7098
*21624 TAP_TAPCELL_ROW_237_7099
*21625 TAP_TAPCELL_ROW_237_7100
*21626 TAP_TAPCELL_ROW_237_7101
*21627 TAP_TAPCELL_ROW_237_7102
*21628 TAP_TAPCELL_ROW_237_7103
*21629 TAP_TAPCELL_ROW_237_7104
*21630 TAP_TAPCELL_ROW_237_7105
*21631 TAP_TAPCELL_ROW_237_7106
*21632 TAP_TAPCELL_ROW_237_7107
*21633 TAP_TAPCELL_ROW_237_7108
*21634 TAP_TAPCELL_ROW_237_7109
*21635 TAP_TAPCELL_ROW_237_7110
*21636 TAP_TAPCELL_ROW_237_7111
*21637 TAP_TAPCELL_ROW_237_7112
*21638 TAP_TAPCELL_ROW_237_7113
*21639 TAP_TAPCELL_ROW_237_7114
*21640 TAP_TAPCELL_ROW_237_7115
*21641 TAP_TAPCELL_ROW_237_7116
*21642 TAP_TAPCELL_ROW_238_7117
*21643 TAP_TAPCELL_ROW_238_7118
*21644 TAP_TAPCELL_ROW_238_7119
*21645 TAP_TAPCELL_ROW_238_7120
*21646 TAP_TAPCELL_ROW_238_7121
*21647 TAP_TAPCELL_ROW_238_7122
*21648 TAP_TAPCELL_ROW_238_7123
*21649 TAP_TAPCELL_ROW_238_7124
*21650 TAP_TAPCELL_ROW_238_7125
*21651 TAP_TAPCELL_ROW_238_7126
*21652 TAP_TAPCELL_ROW_238_7127
*21653 TAP_TAPCELL_ROW_238_7128
*21654 TAP_TAPCELL_ROW_238_7129
*21655 TAP_TAPCELL_ROW_238_7130
*21656 TAP_TAPCELL_ROW_238_7131
*21657 TAP_TAPCELL_ROW_238_7132
*21658 TAP_TAPCELL_ROW_238_7133
*21659 TAP_TAPCELL_ROW_238_7134
*21660 TAP_TAPCELL_ROW_238_7135
*21661 TAP_TAPCELL_ROW_238_7136
*21662 TAP_TAPCELL_ROW_238_7137
*21663 TAP_TAPCELL_ROW_238_7138
*21664 TAP_TAPCELL_ROW_238_7139
*21665 TAP_TAPCELL_ROW_238_7140
*21666 TAP_TAPCELL_ROW_238_7141
*21667 TAP_TAPCELL_ROW_238_7142
*21668 TAP_TAPCELL_ROW_238_7143
*21669 TAP_TAPCELL_ROW_238_7144
*21670 TAP_TAPCELL_ROW_239_7145
*21671 TAP_TAPCELL_ROW_239_7146
*21672 TAP_TAPCELL_ROW_239_7147
*21673 TAP_TAPCELL_ROW_239_7148
*21674 TAP_TAPCELL_ROW_239_7149
*21675 TAP_TAPCELL_ROW_239_7150
*21676 TAP_TAPCELL_ROW_239_7151
*21677 TAP_TAPCELL_ROW_239_7152
*21678 TAP_TAPCELL_ROW_239_7153
*21679 TAP_TAPCELL_ROW_239_7154
*21680 TAP_TAPCELL_ROW_239_7155
*21681 TAP_TAPCELL_ROW_239_7156
*21682 TAP_TAPCELL_ROW_239_7157
*21683 TAP_TAPCELL_ROW_239_7158
*21684 TAP_TAPCELL_ROW_239_7159
*21685 TAP_TAPCELL_ROW_239_7160
*21686 TAP_TAPCELL_ROW_239_7161
*21687 TAP_TAPCELL_ROW_239_7162
*21688 TAP_TAPCELL_ROW_239_7163
*21689 TAP_TAPCELL_ROW_239_7164
*21690 TAP_TAPCELL_ROW_239_7165
*21691 TAP_TAPCELL_ROW_239_7166
*21692 TAP_TAPCELL_ROW_239_7167
*21693 TAP_TAPCELL_ROW_239_7168
*21694 TAP_TAPCELL_ROW_239_7169
*21695 TAP_TAPCELL_ROW_239_7170
*21696 TAP_TAPCELL_ROW_239_7171
*21697 TAP_TAPCELL_ROW_23_1205
*21698 TAP_TAPCELL_ROW_23_1206
*21699 TAP_TAPCELL_ROW_23_1207
*21700 TAP_TAPCELL_ROW_23_1208
*21701 TAP_TAPCELL_ROW_23_1209
*21702 TAP_TAPCELL_ROW_23_1210
*21703 TAP_TAPCELL_ROW_23_1211
*21704 TAP_TAPCELL_ROW_23_1212
*21705 TAP_TAPCELL_ROW_23_1213
*21706 TAP_TAPCELL_ROW_23_1214
*21707 TAP_TAPCELL_ROW_23_1215
*21708 TAP_TAPCELL_ROW_23_1216
*21709 TAP_TAPCELL_ROW_23_1217
*21710 TAP_TAPCELL_ROW_23_1218
*21711 TAP_TAPCELL_ROW_23_1219
*21712 TAP_TAPCELL_ROW_23_1220
*21713 TAP_TAPCELL_ROW_23_1221
*21714 TAP_TAPCELL_ROW_23_1222
*21715 TAP_TAPCELL_ROW_23_1223
*21716 TAP_TAPCELL_ROW_23_1224
*21717 TAP_TAPCELL_ROW_23_1225
*21718 TAP_TAPCELL_ROW_23_1226
*21719 TAP_TAPCELL_ROW_23_1227
*21720 TAP_TAPCELL_ROW_23_1228
*21721 TAP_TAPCELL_ROW_23_1229
*21722 TAP_TAPCELL_ROW_23_1230
*21723 TAP_TAPCELL_ROW_23_1231
*21724 TAP_TAPCELL_ROW_240_7172
*21725 TAP_TAPCELL_ROW_240_7173
*21726 TAP_TAPCELL_ROW_240_7174
*21727 TAP_TAPCELL_ROW_240_7175
*21728 TAP_TAPCELL_ROW_240_7176
*21729 TAP_TAPCELL_ROW_240_7177
*21730 TAP_TAPCELL_ROW_240_7178
*21731 TAP_TAPCELL_ROW_240_7179
*21732 TAP_TAPCELL_ROW_240_7180
*21733 TAP_TAPCELL_ROW_240_7181
*21734 TAP_TAPCELL_ROW_240_7182
*21735 TAP_TAPCELL_ROW_240_7183
*21736 TAP_TAPCELL_ROW_240_7184
*21737 TAP_TAPCELL_ROW_240_7185
*21738 TAP_TAPCELL_ROW_240_7186
*21739 TAP_TAPCELL_ROW_240_7187
*21740 TAP_TAPCELL_ROW_240_7188
*21741 TAP_TAPCELL_ROW_240_7189
*21742 TAP_TAPCELL_ROW_240_7190
*21743 TAP_TAPCELL_ROW_240_7191
*21744 TAP_TAPCELL_ROW_240_7192
*21745 TAP_TAPCELL_ROW_240_7193
*21746 TAP_TAPCELL_ROW_240_7194
*21747 TAP_TAPCELL_ROW_240_7195
*21748 TAP_TAPCELL_ROW_240_7196
*21749 TAP_TAPCELL_ROW_240_7197
*21750 TAP_TAPCELL_ROW_240_7198
*21751 TAP_TAPCELL_ROW_240_7199
*21752 TAP_TAPCELL_ROW_241_7200
*21753 TAP_TAPCELL_ROW_241_7201
*21754 TAP_TAPCELL_ROW_241_7202
*21755 TAP_TAPCELL_ROW_241_7203
*21756 TAP_TAPCELL_ROW_241_7204
*21757 TAP_TAPCELL_ROW_241_7205
*21758 TAP_TAPCELL_ROW_241_7206
*21759 TAP_TAPCELL_ROW_241_7207
*21760 TAP_TAPCELL_ROW_241_7208
*21761 TAP_TAPCELL_ROW_241_7209
*21762 TAP_TAPCELL_ROW_241_7210
*21763 TAP_TAPCELL_ROW_241_7211
*21764 TAP_TAPCELL_ROW_241_7212
*21765 TAP_TAPCELL_ROW_241_7213
*21766 TAP_TAPCELL_ROW_241_7214
*21767 TAP_TAPCELL_ROW_241_7215
*21768 TAP_TAPCELL_ROW_241_7216
*21769 TAP_TAPCELL_ROW_241_7217
*21770 TAP_TAPCELL_ROW_241_7218
*21771 TAP_TAPCELL_ROW_241_7219
*21772 TAP_TAPCELL_ROW_241_7220
*21773 TAP_TAPCELL_ROW_241_7221
*21774 TAP_TAPCELL_ROW_241_7222
*21775 TAP_TAPCELL_ROW_241_7223
*21776 TAP_TAPCELL_ROW_241_7224
*21777 TAP_TAPCELL_ROW_241_7225
*21778 TAP_TAPCELL_ROW_241_7226
*21779 TAP_TAPCELL_ROW_242_7227
*21780 TAP_TAPCELL_ROW_242_7228
*21781 TAP_TAPCELL_ROW_242_7229
*21782 TAP_TAPCELL_ROW_242_7230
*21783 TAP_TAPCELL_ROW_242_7231
*21784 TAP_TAPCELL_ROW_242_7232
*21785 TAP_TAPCELL_ROW_242_7233
*21786 TAP_TAPCELL_ROW_242_7234
*21787 TAP_TAPCELL_ROW_242_7235
*21788 TAP_TAPCELL_ROW_242_7236
*21789 TAP_TAPCELL_ROW_242_7237
*21790 TAP_TAPCELL_ROW_242_7238
*21791 TAP_TAPCELL_ROW_242_7239
*21792 TAP_TAPCELL_ROW_242_7240
*21793 TAP_TAPCELL_ROW_242_7241
*21794 TAP_TAPCELL_ROW_242_7242
*21795 TAP_TAPCELL_ROW_242_7243
*21796 TAP_TAPCELL_ROW_242_7244
*21797 TAP_TAPCELL_ROW_242_7245
*21798 TAP_TAPCELL_ROW_242_7246
*21799 TAP_TAPCELL_ROW_242_7247
*21800 TAP_TAPCELL_ROW_242_7248
*21801 TAP_TAPCELL_ROW_242_7249
*21802 TAP_TAPCELL_ROW_242_7250
*21803 TAP_TAPCELL_ROW_242_7251
*21804 TAP_TAPCELL_ROW_242_7252
*21805 TAP_TAPCELL_ROW_242_7253
*21806 TAP_TAPCELL_ROW_242_7254
*21807 TAP_TAPCELL_ROW_243_7255
*21808 TAP_TAPCELL_ROW_243_7256
*21809 TAP_TAPCELL_ROW_243_7257
*21810 TAP_TAPCELL_ROW_243_7258
*21811 TAP_TAPCELL_ROW_243_7259
*21812 TAP_TAPCELL_ROW_243_7260
*21813 TAP_TAPCELL_ROW_243_7261
*21814 TAP_TAPCELL_ROW_243_7262
*21815 TAP_TAPCELL_ROW_243_7263
*21816 TAP_TAPCELL_ROW_243_7264
*21817 TAP_TAPCELL_ROW_243_7265
*21818 TAP_TAPCELL_ROW_243_7266
*21819 TAP_TAPCELL_ROW_243_7267
*21820 TAP_TAPCELL_ROW_243_7268
*21821 TAP_TAPCELL_ROW_243_7269
*21822 TAP_TAPCELL_ROW_243_7270
*21823 TAP_TAPCELL_ROW_243_7271
*21824 TAP_TAPCELL_ROW_243_7272
*21825 TAP_TAPCELL_ROW_243_7273
*21826 TAP_TAPCELL_ROW_243_7274
*21827 TAP_TAPCELL_ROW_243_7275
*21828 TAP_TAPCELL_ROW_243_7276
*21829 TAP_TAPCELL_ROW_243_7277
*21830 TAP_TAPCELL_ROW_243_7278
*21831 TAP_TAPCELL_ROW_243_7279
*21832 TAP_TAPCELL_ROW_243_7280
*21833 TAP_TAPCELL_ROW_243_7281
*21834 TAP_TAPCELL_ROW_244_7282
*21835 TAP_TAPCELL_ROW_244_7283
*21836 TAP_TAPCELL_ROW_244_7284
*21837 TAP_TAPCELL_ROW_244_7285
*21838 TAP_TAPCELL_ROW_244_7286
*21839 TAP_TAPCELL_ROW_244_7287
*21840 TAP_TAPCELL_ROW_244_7288
*21841 TAP_TAPCELL_ROW_244_7289
*21842 TAP_TAPCELL_ROW_244_7290
*21843 TAP_TAPCELL_ROW_244_7291
*21844 TAP_TAPCELL_ROW_244_7292
*21845 TAP_TAPCELL_ROW_244_7293
*21846 TAP_TAPCELL_ROW_244_7294
*21847 TAP_TAPCELL_ROW_244_7295
*21848 TAP_TAPCELL_ROW_244_7296
*21849 TAP_TAPCELL_ROW_244_7297
*21850 TAP_TAPCELL_ROW_244_7298
*21851 TAP_TAPCELL_ROW_244_7299
*21852 TAP_TAPCELL_ROW_244_7300
*21853 TAP_TAPCELL_ROW_244_7301
*21854 TAP_TAPCELL_ROW_244_7302
*21855 TAP_TAPCELL_ROW_244_7303
*21856 TAP_TAPCELL_ROW_244_7304
*21857 TAP_TAPCELL_ROW_244_7305
*21858 TAP_TAPCELL_ROW_244_7306
*21859 TAP_TAPCELL_ROW_244_7307
*21860 TAP_TAPCELL_ROW_244_7308
*21861 TAP_TAPCELL_ROW_244_7309
*21862 TAP_TAPCELL_ROW_245_7310
*21863 TAP_TAPCELL_ROW_245_7311
*21864 TAP_TAPCELL_ROW_245_7312
*21865 TAP_TAPCELL_ROW_245_7313
*21866 TAP_TAPCELL_ROW_245_7314
*21867 TAP_TAPCELL_ROW_245_7315
*21868 TAP_TAPCELL_ROW_245_7316
*21869 TAP_TAPCELL_ROW_245_7317
*21870 TAP_TAPCELL_ROW_245_7318
*21871 TAP_TAPCELL_ROW_245_7319
*21872 TAP_TAPCELL_ROW_245_7320
*21873 TAP_TAPCELL_ROW_245_7321
*21874 TAP_TAPCELL_ROW_245_7322
*21875 TAP_TAPCELL_ROW_245_7323
*21876 TAP_TAPCELL_ROW_245_7324
*21877 TAP_TAPCELL_ROW_245_7325
*21878 TAP_TAPCELL_ROW_245_7326
*21879 TAP_TAPCELL_ROW_245_7327
*21880 TAP_TAPCELL_ROW_245_7328
*21881 TAP_TAPCELL_ROW_245_7329
*21882 TAP_TAPCELL_ROW_245_7330
*21883 TAP_TAPCELL_ROW_245_7331
*21884 TAP_TAPCELL_ROW_245_7332
*21885 TAP_TAPCELL_ROW_245_7333
*21886 TAP_TAPCELL_ROW_245_7334
*21887 TAP_TAPCELL_ROW_245_7335
*21888 TAP_TAPCELL_ROW_245_7336
*21889 TAP_TAPCELL_ROW_246_7337
*21890 TAP_TAPCELL_ROW_246_7338
*21891 TAP_TAPCELL_ROW_246_7339
*21892 TAP_TAPCELL_ROW_246_7340
*21893 TAP_TAPCELL_ROW_246_7341
*21894 TAP_TAPCELL_ROW_246_7342
*21895 TAP_TAPCELL_ROW_246_7343
*21896 TAP_TAPCELL_ROW_246_7344
*21897 TAP_TAPCELL_ROW_246_7345
*21898 TAP_TAPCELL_ROW_246_7346
*21899 TAP_TAPCELL_ROW_246_7347
*21900 TAP_TAPCELL_ROW_246_7348
*21901 TAP_TAPCELL_ROW_246_7349
*21902 TAP_TAPCELL_ROW_246_7350
*21903 TAP_TAPCELL_ROW_246_7351
*21904 TAP_TAPCELL_ROW_246_7352
*21905 TAP_TAPCELL_ROW_246_7353
*21906 TAP_TAPCELL_ROW_246_7354
*21907 TAP_TAPCELL_ROW_246_7355
*21908 TAP_TAPCELL_ROW_246_7356
*21909 TAP_TAPCELL_ROW_246_7357
*21910 TAP_TAPCELL_ROW_246_7358
*21911 TAP_TAPCELL_ROW_246_7359
*21912 TAP_TAPCELL_ROW_246_7360
*21913 TAP_TAPCELL_ROW_246_7361
*21914 TAP_TAPCELL_ROW_246_7362
*21915 TAP_TAPCELL_ROW_246_7363
*21916 TAP_TAPCELL_ROW_246_7364
*21917 TAP_TAPCELL_ROW_247_7365
*21918 TAP_TAPCELL_ROW_247_7366
*21919 TAP_TAPCELL_ROW_247_7367
*21920 TAP_TAPCELL_ROW_247_7368
*21921 TAP_TAPCELL_ROW_247_7369
*21922 TAP_TAPCELL_ROW_247_7370
*21923 TAP_TAPCELL_ROW_247_7371
*21924 TAP_TAPCELL_ROW_247_7372
*21925 TAP_TAPCELL_ROW_247_7373
*21926 TAP_TAPCELL_ROW_247_7374
*21927 TAP_TAPCELL_ROW_247_7375
*21928 TAP_TAPCELL_ROW_247_7376
*21929 TAP_TAPCELL_ROW_247_7377
*21930 TAP_TAPCELL_ROW_247_7378
*21931 TAP_TAPCELL_ROW_247_7379
*21932 TAP_TAPCELL_ROW_247_7380
*21933 TAP_TAPCELL_ROW_247_7381
*21934 TAP_TAPCELL_ROW_247_7382
*21935 TAP_TAPCELL_ROW_247_7383
*21936 TAP_TAPCELL_ROW_247_7384
*21937 TAP_TAPCELL_ROW_247_7385
*21938 TAP_TAPCELL_ROW_247_7386
*21939 TAP_TAPCELL_ROW_247_7387
*21940 TAP_TAPCELL_ROW_247_7388
*21941 TAP_TAPCELL_ROW_247_7389
*21942 TAP_TAPCELL_ROW_247_7390
*21943 TAP_TAPCELL_ROW_247_7391
*21944 TAP_TAPCELL_ROW_248_7392
*21945 TAP_TAPCELL_ROW_248_7393
*21946 TAP_TAPCELL_ROW_248_7394
*21947 TAP_TAPCELL_ROW_248_7395
*21948 TAP_TAPCELL_ROW_248_7396
*21949 TAP_TAPCELL_ROW_248_7397
*21950 TAP_TAPCELL_ROW_248_7398
*21951 TAP_TAPCELL_ROW_248_7399
*21952 TAP_TAPCELL_ROW_248_7400
*21953 TAP_TAPCELL_ROW_248_7401
*21954 TAP_TAPCELL_ROW_248_7402
*21955 TAP_TAPCELL_ROW_248_7403
*21956 TAP_TAPCELL_ROW_248_7404
*21957 TAP_TAPCELL_ROW_248_7405
*21958 TAP_TAPCELL_ROW_248_7406
*21959 TAP_TAPCELL_ROW_248_7407
*21960 TAP_TAPCELL_ROW_248_7408
*21961 TAP_TAPCELL_ROW_248_7409
*21962 TAP_TAPCELL_ROW_248_7410
*21963 TAP_TAPCELL_ROW_248_7411
*21964 TAP_TAPCELL_ROW_248_7412
*21965 TAP_TAPCELL_ROW_248_7413
*21966 TAP_TAPCELL_ROW_248_7414
*21967 TAP_TAPCELL_ROW_248_7415
*21968 TAP_TAPCELL_ROW_248_7416
*21969 TAP_TAPCELL_ROW_248_7417
*21970 TAP_TAPCELL_ROW_248_7418
*21971 TAP_TAPCELL_ROW_248_7419
*21972 TAP_TAPCELL_ROW_249_7420
*21973 TAP_TAPCELL_ROW_249_7421
*21974 TAP_TAPCELL_ROW_249_7422
*21975 TAP_TAPCELL_ROW_249_7423
*21976 TAP_TAPCELL_ROW_249_7424
*21977 TAP_TAPCELL_ROW_249_7425
*21978 TAP_TAPCELL_ROW_249_7426
*21979 TAP_TAPCELL_ROW_249_7427
*21980 TAP_TAPCELL_ROW_249_7428
*21981 TAP_TAPCELL_ROW_249_7429
*21982 TAP_TAPCELL_ROW_249_7430
*21983 TAP_TAPCELL_ROW_249_7431
*21984 TAP_TAPCELL_ROW_249_7432
*21985 TAP_TAPCELL_ROW_249_7433
*21986 TAP_TAPCELL_ROW_249_7434
*21987 TAP_TAPCELL_ROW_249_7435
*21988 TAP_TAPCELL_ROW_249_7436
*21989 TAP_TAPCELL_ROW_249_7437
*21990 TAP_TAPCELL_ROW_249_7438
*21991 TAP_TAPCELL_ROW_249_7439
*21992 TAP_TAPCELL_ROW_249_7440
*21993 TAP_TAPCELL_ROW_249_7441
*21994 TAP_TAPCELL_ROW_249_7442
*21995 TAP_TAPCELL_ROW_249_7443
*21996 TAP_TAPCELL_ROW_249_7444
*21997 TAP_TAPCELL_ROW_249_7445
*21998 TAP_TAPCELL_ROW_249_7446
*21999 TAP_TAPCELL_ROW_24_1232
*22000 TAP_TAPCELL_ROW_24_1233
*22001 TAP_TAPCELL_ROW_24_1234
*22002 TAP_TAPCELL_ROW_24_1235
*22003 TAP_TAPCELL_ROW_24_1236
*22004 TAP_TAPCELL_ROW_24_1237
*22005 TAP_TAPCELL_ROW_24_1238
*22006 TAP_TAPCELL_ROW_24_1239
*22007 TAP_TAPCELL_ROW_24_1240
*22008 TAP_TAPCELL_ROW_24_1241
*22009 TAP_TAPCELL_ROW_24_1242
*22010 TAP_TAPCELL_ROW_24_1243
*22011 TAP_TAPCELL_ROW_24_1244
*22012 TAP_TAPCELL_ROW_24_1245
*22013 TAP_TAPCELL_ROW_24_1246
*22014 TAP_TAPCELL_ROW_24_1247
*22015 TAP_TAPCELL_ROW_24_1248
*22016 TAP_TAPCELL_ROW_24_1249
*22017 TAP_TAPCELL_ROW_24_1250
*22018 TAP_TAPCELL_ROW_24_1251
*22019 TAP_TAPCELL_ROW_24_1252
*22020 TAP_TAPCELL_ROW_24_1253
*22021 TAP_TAPCELL_ROW_24_1254
*22022 TAP_TAPCELL_ROW_24_1255
*22023 TAP_TAPCELL_ROW_24_1256
*22024 TAP_TAPCELL_ROW_24_1257
*22025 TAP_TAPCELL_ROW_24_1258
*22026 TAP_TAPCELL_ROW_24_1259
*22027 TAP_TAPCELL_ROW_250_7447
*22028 TAP_TAPCELL_ROW_250_7448
*22029 TAP_TAPCELL_ROW_250_7449
*22030 TAP_TAPCELL_ROW_250_7450
*22031 TAP_TAPCELL_ROW_250_7451
*22032 TAP_TAPCELL_ROW_250_7452
*22033 TAP_TAPCELL_ROW_250_7453
*22034 TAP_TAPCELL_ROW_250_7454
*22035 TAP_TAPCELL_ROW_250_7455
*22036 TAP_TAPCELL_ROW_250_7456
*22037 TAP_TAPCELL_ROW_250_7457
*22038 TAP_TAPCELL_ROW_250_7458
*22039 TAP_TAPCELL_ROW_250_7459
*22040 TAP_TAPCELL_ROW_250_7460
*22041 TAP_TAPCELL_ROW_250_7461
*22042 TAP_TAPCELL_ROW_250_7462
*22043 TAP_TAPCELL_ROW_250_7463
*22044 TAP_TAPCELL_ROW_250_7464
*22045 TAP_TAPCELL_ROW_250_7465
*22046 TAP_TAPCELL_ROW_250_7466
*22047 TAP_TAPCELL_ROW_250_7467
*22048 TAP_TAPCELL_ROW_250_7468
*22049 TAP_TAPCELL_ROW_250_7469
*22050 TAP_TAPCELL_ROW_250_7470
*22051 TAP_TAPCELL_ROW_250_7471
*22052 TAP_TAPCELL_ROW_250_7472
*22053 TAP_TAPCELL_ROW_250_7473
*22054 TAP_TAPCELL_ROW_250_7474
*22055 TAP_TAPCELL_ROW_251_7475
*22056 TAP_TAPCELL_ROW_251_7476
*22057 TAP_TAPCELL_ROW_251_7477
*22058 TAP_TAPCELL_ROW_251_7478
*22059 TAP_TAPCELL_ROW_251_7479
*22060 TAP_TAPCELL_ROW_251_7480
*22061 TAP_TAPCELL_ROW_251_7481
*22062 TAP_TAPCELL_ROW_251_7482
*22063 TAP_TAPCELL_ROW_251_7483
*22064 TAP_TAPCELL_ROW_251_7484
*22065 TAP_TAPCELL_ROW_251_7485
*22066 TAP_TAPCELL_ROW_251_7486
*22067 TAP_TAPCELL_ROW_251_7487
*22068 TAP_TAPCELL_ROW_251_7488
*22069 TAP_TAPCELL_ROW_251_7489
*22070 TAP_TAPCELL_ROW_251_7490
*22071 TAP_TAPCELL_ROW_251_7491
*22072 TAP_TAPCELL_ROW_251_7492
*22073 TAP_TAPCELL_ROW_251_7493
*22074 TAP_TAPCELL_ROW_251_7494
*22075 TAP_TAPCELL_ROW_251_7495
*22076 TAP_TAPCELL_ROW_251_7496
*22077 TAP_TAPCELL_ROW_251_7497
*22078 TAP_TAPCELL_ROW_251_7498
*22079 TAP_TAPCELL_ROW_251_7499
*22080 TAP_TAPCELL_ROW_251_7500
*22081 TAP_TAPCELL_ROW_251_7501
*22082 TAP_TAPCELL_ROW_252_7502
*22083 TAP_TAPCELL_ROW_252_7503
*22084 TAP_TAPCELL_ROW_252_7504
*22085 TAP_TAPCELL_ROW_252_7505
*22086 TAP_TAPCELL_ROW_252_7506
*22087 TAP_TAPCELL_ROW_252_7507
*22088 TAP_TAPCELL_ROW_252_7508
*22089 TAP_TAPCELL_ROW_252_7509
*22090 TAP_TAPCELL_ROW_252_7510
*22091 TAP_TAPCELL_ROW_252_7511
*22092 TAP_TAPCELL_ROW_252_7512
*22093 TAP_TAPCELL_ROW_252_7513
*22094 TAP_TAPCELL_ROW_252_7514
*22095 TAP_TAPCELL_ROW_252_7515
*22096 TAP_TAPCELL_ROW_252_7516
*22097 TAP_TAPCELL_ROW_252_7517
*22098 TAP_TAPCELL_ROW_252_7518
*22099 TAP_TAPCELL_ROW_252_7519
*22100 TAP_TAPCELL_ROW_252_7520
*22101 TAP_TAPCELL_ROW_252_7521
*22102 TAP_TAPCELL_ROW_252_7522
*22103 TAP_TAPCELL_ROW_252_7523
*22104 TAP_TAPCELL_ROW_252_7524
*22105 TAP_TAPCELL_ROW_252_7525
*22106 TAP_TAPCELL_ROW_252_7526
*22107 TAP_TAPCELL_ROW_252_7527
*22108 TAP_TAPCELL_ROW_252_7528
*22109 TAP_TAPCELL_ROW_252_7529
*22110 TAP_TAPCELL_ROW_253_7530
*22111 TAP_TAPCELL_ROW_253_7531
*22112 TAP_TAPCELL_ROW_253_7532
*22113 TAP_TAPCELL_ROW_253_7533
*22114 TAP_TAPCELL_ROW_253_7534
*22115 TAP_TAPCELL_ROW_253_7535
*22116 TAP_TAPCELL_ROW_253_7536
*22117 TAP_TAPCELL_ROW_253_7537
*22118 TAP_TAPCELL_ROW_253_7538
*22119 TAP_TAPCELL_ROW_253_7539
*22120 TAP_TAPCELL_ROW_253_7540
*22121 TAP_TAPCELL_ROW_253_7541
*22122 TAP_TAPCELL_ROW_253_7542
*22123 TAP_TAPCELL_ROW_253_7543
*22124 TAP_TAPCELL_ROW_253_7544
*22125 TAP_TAPCELL_ROW_253_7545
*22126 TAP_TAPCELL_ROW_253_7546
*22127 TAP_TAPCELL_ROW_253_7547
*22128 TAP_TAPCELL_ROW_253_7548
*22129 TAP_TAPCELL_ROW_253_7549
*22130 TAP_TAPCELL_ROW_253_7550
*22131 TAP_TAPCELL_ROW_253_7551
*22132 TAP_TAPCELL_ROW_253_7552
*22133 TAP_TAPCELL_ROW_253_7553
*22134 TAP_TAPCELL_ROW_253_7554
*22135 TAP_TAPCELL_ROW_253_7555
*22136 TAP_TAPCELL_ROW_253_7556
*22137 TAP_TAPCELL_ROW_254_7557
*22138 TAP_TAPCELL_ROW_254_7558
*22139 TAP_TAPCELL_ROW_254_7559
*22140 TAP_TAPCELL_ROW_254_7560
*22141 TAP_TAPCELL_ROW_254_7561
*22142 TAP_TAPCELL_ROW_254_7562
*22143 TAP_TAPCELL_ROW_254_7563
*22144 TAP_TAPCELL_ROW_254_7564
*22145 TAP_TAPCELL_ROW_254_7565
*22146 TAP_TAPCELL_ROW_254_7566
*22147 TAP_TAPCELL_ROW_254_7567
*22148 TAP_TAPCELL_ROW_254_7568
*22149 TAP_TAPCELL_ROW_254_7569
*22150 TAP_TAPCELL_ROW_254_7570
*22151 TAP_TAPCELL_ROW_254_7571
*22152 TAP_TAPCELL_ROW_254_7572
*22153 TAP_TAPCELL_ROW_254_7573
*22154 TAP_TAPCELL_ROW_254_7574
*22155 TAP_TAPCELL_ROW_254_7575
*22156 TAP_TAPCELL_ROW_254_7576
*22157 TAP_TAPCELL_ROW_254_7577
*22158 TAP_TAPCELL_ROW_254_7578
*22159 TAP_TAPCELL_ROW_254_7579
*22160 TAP_TAPCELL_ROW_254_7580
*22161 TAP_TAPCELL_ROW_254_7581
*22162 TAP_TAPCELL_ROW_254_7582
*22163 TAP_TAPCELL_ROW_254_7583
*22164 TAP_TAPCELL_ROW_254_7584
*22165 TAP_TAPCELL_ROW_255_7585
*22166 TAP_TAPCELL_ROW_255_7586
*22167 TAP_TAPCELL_ROW_255_7587
*22168 TAP_TAPCELL_ROW_255_7588
*22169 TAP_TAPCELL_ROW_255_7589
*22170 TAP_TAPCELL_ROW_255_7590
*22171 TAP_TAPCELL_ROW_255_7591
*22172 TAP_TAPCELL_ROW_255_7592
*22173 TAP_TAPCELL_ROW_255_7593
*22174 TAP_TAPCELL_ROW_255_7594
*22175 TAP_TAPCELL_ROW_255_7595
*22176 TAP_TAPCELL_ROW_255_7596
*22177 TAP_TAPCELL_ROW_255_7597
*22178 TAP_TAPCELL_ROW_255_7598
*22179 TAP_TAPCELL_ROW_255_7599
*22180 TAP_TAPCELL_ROW_255_7600
*22181 TAP_TAPCELL_ROW_255_7601
*22182 TAP_TAPCELL_ROW_255_7602
*22183 TAP_TAPCELL_ROW_255_7603
*22184 TAP_TAPCELL_ROW_255_7604
*22185 TAP_TAPCELL_ROW_255_7605
*22186 TAP_TAPCELL_ROW_255_7606
*22187 TAP_TAPCELL_ROW_255_7607
*22188 TAP_TAPCELL_ROW_255_7608
*22189 TAP_TAPCELL_ROW_255_7609
*22190 TAP_TAPCELL_ROW_255_7610
*22191 TAP_TAPCELL_ROW_255_7611
*22192 TAP_TAPCELL_ROW_256_7612
*22193 TAP_TAPCELL_ROW_256_7613
*22194 TAP_TAPCELL_ROW_256_7614
*22195 TAP_TAPCELL_ROW_256_7615
*22196 TAP_TAPCELL_ROW_256_7616
*22197 TAP_TAPCELL_ROW_256_7617
*22198 TAP_TAPCELL_ROW_256_7618
*22199 TAP_TAPCELL_ROW_256_7619
*22200 TAP_TAPCELL_ROW_256_7620
*22201 TAP_TAPCELL_ROW_256_7621
*22202 TAP_TAPCELL_ROW_256_7622
*22203 TAP_TAPCELL_ROW_256_7623
*22204 TAP_TAPCELL_ROW_256_7624
*22205 TAP_TAPCELL_ROW_256_7625
*22206 TAP_TAPCELL_ROW_256_7626
*22207 TAP_TAPCELL_ROW_256_7627
*22208 TAP_TAPCELL_ROW_256_7628
*22209 TAP_TAPCELL_ROW_256_7629
*22210 TAP_TAPCELL_ROW_256_7630
*22211 TAP_TAPCELL_ROW_256_7631
*22212 TAP_TAPCELL_ROW_256_7632
*22213 TAP_TAPCELL_ROW_256_7633
*22214 TAP_TAPCELL_ROW_256_7634
*22215 TAP_TAPCELL_ROW_256_7635
*22216 TAP_TAPCELL_ROW_256_7636
*22217 TAP_TAPCELL_ROW_256_7637
*22218 TAP_TAPCELL_ROW_256_7638
*22219 TAP_TAPCELL_ROW_256_7639
*22220 TAP_TAPCELL_ROW_257_7640
*22221 TAP_TAPCELL_ROW_257_7641
*22222 TAP_TAPCELL_ROW_257_7642
*22223 TAP_TAPCELL_ROW_257_7643
*22224 TAP_TAPCELL_ROW_257_7644
*22225 TAP_TAPCELL_ROW_257_7645
*22226 TAP_TAPCELL_ROW_257_7646
*22227 TAP_TAPCELL_ROW_257_7647
*22228 TAP_TAPCELL_ROW_257_7648
*22229 TAP_TAPCELL_ROW_257_7649
*22230 TAP_TAPCELL_ROW_257_7650
*22231 TAP_TAPCELL_ROW_257_7651
*22232 TAP_TAPCELL_ROW_257_7652
*22233 TAP_TAPCELL_ROW_257_7653
*22234 TAP_TAPCELL_ROW_257_7654
*22235 TAP_TAPCELL_ROW_257_7655
*22236 TAP_TAPCELL_ROW_257_7656
*22237 TAP_TAPCELL_ROW_257_7657
*22238 TAP_TAPCELL_ROW_257_7658
*22239 TAP_TAPCELL_ROW_257_7659
*22240 TAP_TAPCELL_ROW_257_7660
*22241 TAP_TAPCELL_ROW_257_7661
*22242 TAP_TAPCELL_ROW_257_7662
*22243 TAP_TAPCELL_ROW_257_7663
*22244 TAP_TAPCELL_ROW_257_7664
*22245 TAP_TAPCELL_ROW_257_7665
*22246 TAP_TAPCELL_ROW_257_7666
*22247 TAP_TAPCELL_ROW_258_7667
*22248 TAP_TAPCELL_ROW_258_7668
*22249 TAP_TAPCELL_ROW_258_7669
*22250 TAP_TAPCELL_ROW_258_7670
*22251 TAP_TAPCELL_ROW_258_7671
*22252 TAP_TAPCELL_ROW_258_7672
*22253 TAP_TAPCELL_ROW_258_7673
*22254 TAP_TAPCELL_ROW_258_7674
*22255 TAP_TAPCELL_ROW_258_7675
*22256 TAP_TAPCELL_ROW_258_7676
*22257 TAP_TAPCELL_ROW_258_7677
*22258 TAP_TAPCELL_ROW_258_7678
*22259 TAP_TAPCELL_ROW_258_7679
*22260 TAP_TAPCELL_ROW_258_7680
*22261 TAP_TAPCELL_ROW_258_7681
*22262 TAP_TAPCELL_ROW_258_7682
*22263 TAP_TAPCELL_ROW_258_7683
*22264 TAP_TAPCELL_ROW_258_7684
*22265 TAP_TAPCELL_ROW_258_7685
*22266 TAP_TAPCELL_ROW_258_7686
*22267 TAP_TAPCELL_ROW_258_7687
*22268 TAP_TAPCELL_ROW_258_7688
*22269 TAP_TAPCELL_ROW_258_7689
*22270 TAP_TAPCELL_ROW_258_7690
*22271 TAP_TAPCELL_ROW_258_7691
*22272 TAP_TAPCELL_ROW_258_7692
*22273 TAP_TAPCELL_ROW_258_7693
*22274 TAP_TAPCELL_ROW_258_7694
*22275 TAP_TAPCELL_ROW_259_7695
*22276 TAP_TAPCELL_ROW_259_7696
*22277 TAP_TAPCELL_ROW_259_7697
*22278 TAP_TAPCELL_ROW_259_7698
*22279 TAP_TAPCELL_ROW_259_7699
*22280 TAP_TAPCELL_ROW_259_7700
*22281 TAP_TAPCELL_ROW_259_7701
*22282 TAP_TAPCELL_ROW_259_7702
*22283 TAP_TAPCELL_ROW_259_7703
*22284 TAP_TAPCELL_ROW_259_7704
*22285 TAP_TAPCELL_ROW_259_7705
*22286 TAP_TAPCELL_ROW_259_7706
*22287 TAP_TAPCELL_ROW_259_7707
*22288 TAP_TAPCELL_ROW_259_7708
*22289 TAP_TAPCELL_ROW_259_7709
*22290 TAP_TAPCELL_ROW_259_7710
*22291 TAP_TAPCELL_ROW_259_7711
*22292 TAP_TAPCELL_ROW_259_7712
*22293 TAP_TAPCELL_ROW_259_7713
*22294 TAP_TAPCELL_ROW_259_7714
*22295 TAP_TAPCELL_ROW_259_7715
*22296 TAP_TAPCELL_ROW_259_7716
*22297 TAP_TAPCELL_ROW_259_7717
*22298 TAP_TAPCELL_ROW_259_7718
*22299 TAP_TAPCELL_ROW_259_7719
*22300 TAP_TAPCELL_ROW_259_7720
*22301 TAP_TAPCELL_ROW_259_7721
*22302 TAP_TAPCELL_ROW_25_1260
*22303 TAP_TAPCELL_ROW_25_1261
*22304 TAP_TAPCELL_ROW_25_1262
*22305 TAP_TAPCELL_ROW_25_1263
*22306 TAP_TAPCELL_ROW_25_1264
*22307 TAP_TAPCELL_ROW_25_1265
*22308 TAP_TAPCELL_ROW_25_1266
*22309 TAP_TAPCELL_ROW_25_1267
*22310 TAP_TAPCELL_ROW_25_1268
*22311 TAP_TAPCELL_ROW_25_1269
*22312 TAP_TAPCELL_ROW_25_1270
*22313 TAP_TAPCELL_ROW_25_1271
*22314 TAP_TAPCELL_ROW_25_1272
*22315 TAP_TAPCELL_ROW_25_1273
*22316 TAP_TAPCELL_ROW_25_1274
*22317 TAP_TAPCELL_ROW_25_1275
*22318 TAP_TAPCELL_ROW_25_1276
*22319 TAP_TAPCELL_ROW_25_1277
*22320 TAP_TAPCELL_ROW_25_1278
*22321 TAP_TAPCELL_ROW_25_1279
*22322 TAP_TAPCELL_ROW_25_1280
*22323 TAP_TAPCELL_ROW_25_1281
*22324 TAP_TAPCELL_ROW_25_1282
*22325 TAP_TAPCELL_ROW_25_1283
*22326 TAP_TAPCELL_ROW_25_1284
*22327 TAP_TAPCELL_ROW_25_1285
*22328 TAP_TAPCELL_ROW_25_1286
*22329 TAP_TAPCELL_ROW_260_7722
*22330 TAP_TAPCELL_ROW_260_7723
*22331 TAP_TAPCELL_ROW_260_7724
*22332 TAP_TAPCELL_ROW_260_7725
*22333 TAP_TAPCELL_ROW_260_7726
*22334 TAP_TAPCELL_ROW_260_7727
*22335 TAP_TAPCELL_ROW_260_7728
*22336 TAP_TAPCELL_ROW_260_7729
*22337 TAP_TAPCELL_ROW_260_7730
*22338 TAP_TAPCELL_ROW_260_7731
*22339 TAP_TAPCELL_ROW_260_7732
*22340 TAP_TAPCELL_ROW_260_7733
*22341 TAP_TAPCELL_ROW_260_7734
*22342 TAP_TAPCELL_ROW_260_7735
*22343 TAP_TAPCELL_ROW_260_7736
*22344 TAP_TAPCELL_ROW_260_7737
*22345 TAP_TAPCELL_ROW_260_7738
*22346 TAP_TAPCELL_ROW_260_7739
*22347 TAP_TAPCELL_ROW_260_7740
*22348 TAP_TAPCELL_ROW_260_7741
*22349 TAP_TAPCELL_ROW_260_7742
*22350 TAP_TAPCELL_ROW_260_7743
*22351 TAP_TAPCELL_ROW_260_7744
*22352 TAP_TAPCELL_ROW_260_7745
*22353 TAP_TAPCELL_ROW_260_7746
*22354 TAP_TAPCELL_ROW_260_7747
*22355 TAP_TAPCELL_ROW_260_7748
*22356 TAP_TAPCELL_ROW_260_7749
*22357 TAP_TAPCELL_ROW_261_7750
*22358 TAP_TAPCELL_ROW_261_7751
*22359 TAP_TAPCELL_ROW_261_7752
*22360 TAP_TAPCELL_ROW_261_7753
*22361 TAP_TAPCELL_ROW_261_7754
*22362 TAP_TAPCELL_ROW_261_7755
*22363 TAP_TAPCELL_ROW_261_7756
*22364 TAP_TAPCELL_ROW_261_7757
*22365 TAP_TAPCELL_ROW_261_7758
*22366 TAP_TAPCELL_ROW_261_7759
*22367 TAP_TAPCELL_ROW_261_7760
*22368 TAP_TAPCELL_ROW_261_7761
*22369 TAP_TAPCELL_ROW_261_7762
*22370 TAP_TAPCELL_ROW_261_7763
*22371 TAP_TAPCELL_ROW_261_7764
*22372 TAP_TAPCELL_ROW_261_7765
*22373 TAP_TAPCELL_ROW_261_7766
*22374 TAP_TAPCELL_ROW_261_7767
*22375 TAP_TAPCELL_ROW_261_7768
*22376 TAP_TAPCELL_ROW_261_7769
*22377 TAP_TAPCELL_ROW_261_7770
*22378 TAP_TAPCELL_ROW_261_7771
*22379 TAP_TAPCELL_ROW_261_7772
*22380 TAP_TAPCELL_ROW_261_7773
*22381 TAP_TAPCELL_ROW_261_7774
*22382 TAP_TAPCELL_ROW_261_7775
*22383 TAP_TAPCELL_ROW_261_7776
*22384 TAP_TAPCELL_ROW_262_7777
*22385 TAP_TAPCELL_ROW_262_7778
*22386 TAP_TAPCELL_ROW_262_7779
*22387 TAP_TAPCELL_ROW_262_7780
*22388 TAP_TAPCELL_ROW_262_7781
*22389 TAP_TAPCELL_ROW_262_7782
*22390 TAP_TAPCELL_ROW_262_7783
*22391 TAP_TAPCELL_ROW_262_7784
*22392 TAP_TAPCELL_ROW_262_7785
*22393 TAP_TAPCELL_ROW_262_7786
*22394 TAP_TAPCELL_ROW_262_7787
*22395 TAP_TAPCELL_ROW_262_7788
*22396 TAP_TAPCELL_ROW_262_7789
*22397 TAP_TAPCELL_ROW_262_7790
*22398 TAP_TAPCELL_ROW_262_7791
*22399 TAP_TAPCELL_ROW_262_7792
*22400 TAP_TAPCELL_ROW_262_7793
*22401 TAP_TAPCELL_ROW_262_7794
*22402 TAP_TAPCELL_ROW_262_7795
*22403 TAP_TAPCELL_ROW_262_7796
*22404 TAP_TAPCELL_ROW_262_7797
*22405 TAP_TAPCELL_ROW_262_7798
*22406 TAP_TAPCELL_ROW_262_7799
*22407 TAP_TAPCELL_ROW_262_7800
*22408 TAP_TAPCELL_ROW_262_7801
*22409 TAP_TAPCELL_ROW_262_7802
*22410 TAP_TAPCELL_ROW_262_7803
*22411 TAP_TAPCELL_ROW_262_7804
*22412 TAP_TAPCELL_ROW_263_7805
*22413 TAP_TAPCELL_ROW_263_7806
*22414 TAP_TAPCELL_ROW_263_7807
*22415 TAP_TAPCELL_ROW_263_7808
*22416 TAP_TAPCELL_ROW_263_7809
*22417 TAP_TAPCELL_ROW_263_7810
*22418 TAP_TAPCELL_ROW_263_7811
*22419 TAP_TAPCELL_ROW_263_7812
*22420 TAP_TAPCELL_ROW_263_7813
*22421 TAP_TAPCELL_ROW_263_7814
*22422 TAP_TAPCELL_ROW_263_7815
*22423 TAP_TAPCELL_ROW_263_7816
*22424 TAP_TAPCELL_ROW_263_7817
*22425 TAP_TAPCELL_ROW_263_7818
*22426 TAP_TAPCELL_ROW_263_7819
*22427 TAP_TAPCELL_ROW_263_7820
*22428 TAP_TAPCELL_ROW_263_7821
*22429 TAP_TAPCELL_ROW_263_7822
*22430 TAP_TAPCELL_ROW_263_7823
*22431 TAP_TAPCELL_ROW_263_7824
*22432 TAP_TAPCELL_ROW_263_7825
*22433 TAP_TAPCELL_ROW_263_7826
*22434 TAP_TAPCELL_ROW_263_7827
*22435 TAP_TAPCELL_ROW_263_7828
*22436 TAP_TAPCELL_ROW_263_7829
*22437 TAP_TAPCELL_ROW_263_7830
*22438 TAP_TAPCELL_ROW_263_7831
*22439 TAP_TAPCELL_ROW_264_7832
*22440 TAP_TAPCELL_ROW_264_7833
*22441 TAP_TAPCELL_ROW_264_7834
*22442 TAP_TAPCELL_ROW_264_7835
*22443 TAP_TAPCELL_ROW_264_7836
*22444 TAP_TAPCELL_ROW_264_7837
*22445 TAP_TAPCELL_ROW_264_7838
*22446 TAP_TAPCELL_ROW_264_7839
*22447 TAP_TAPCELL_ROW_264_7840
*22448 TAP_TAPCELL_ROW_264_7841
*22449 TAP_TAPCELL_ROW_264_7842
*22450 TAP_TAPCELL_ROW_264_7843
*22451 TAP_TAPCELL_ROW_264_7844
*22452 TAP_TAPCELL_ROW_264_7845
*22453 TAP_TAPCELL_ROW_264_7846
*22454 TAP_TAPCELL_ROW_264_7847
*22455 TAP_TAPCELL_ROW_264_7848
*22456 TAP_TAPCELL_ROW_264_7849
*22457 TAP_TAPCELL_ROW_264_7850
*22458 TAP_TAPCELL_ROW_264_7851
*22459 TAP_TAPCELL_ROW_264_7852
*22460 TAP_TAPCELL_ROW_264_7853
*22461 TAP_TAPCELL_ROW_264_7854
*22462 TAP_TAPCELL_ROW_264_7855
*22463 TAP_TAPCELL_ROW_264_7856
*22464 TAP_TAPCELL_ROW_264_7857
*22465 TAP_TAPCELL_ROW_264_7858
*22466 TAP_TAPCELL_ROW_264_7859
*22467 TAP_TAPCELL_ROW_265_7860
*22468 TAP_TAPCELL_ROW_265_7861
*22469 TAP_TAPCELL_ROW_265_7862
*22470 TAP_TAPCELL_ROW_265_7863
*22471 TAP_TAPCELL_ROW_265_7864
*22472 TAP_TAPCELL_ROW_265_7865
*22473 TAP_TAPCELL_ROW_265_7866
*22474 TAP_TAPCELL_ROW_265_7867
*22475 TAP_TAPCELL_ROW_265_7868
*22476 TAP_TAPCELL_ROW_265_7869
*22477 TAP_TAPCELL_ROW_265_7870
*22478 TAP_TAPCELL_ROW_265_7871
*22479 TAP_TAPCELL_ROW_265_7872
*22480 TAP_TAPCELL_ROW_265_7873
*22481 TAP_TAPCELL_ROW_265_7874
*22482 TAP_TAPCELL_ROW_265_7875
*22483 TAP_TAPCELL_ROW_265_7876
*22484 TAP_TAPCELL_ROW_265_7877
*22485 TAP_TAPCELL_ROW_265_7878
*22486 TAP_TAPCELL_ROW_265_7879
*22487 TAP_TAPCELL_ROW_265_7880
*22488 TAP_TAPCELL_ROW_265_7881
*22489 TAP_TAPCELL_ROW_265_7882
*22490 TAP_TAPCELL_ROW_265_7883
*22491 TAP_TAPCELL_ROW_265_7884
*22492 TAP_TAPCELL_ROW_265_7885
*22493 TAP_TAPCELL_ROW_265_7886
*22494 TAP_TAPCELL_ROW_266_7887
*22495 TAP_TAPCELL_ROW_266_7888
*22496 TAP_TAPCELL_ROW_266_7889
*22497 TAP_TAPCELL_ROW_266_7890
*22498 TAP_TAPCELL_ROW_266_7891
*22499 TAP_TAPCELL_ROW_266_7892
*22500 TAP_TAPCELL_ROW_266_7893
*22501 TAP_TAPCELL_ROW_266_7894
*22502 TAP_TAPCELL_ROW_266_7895
*22503 TAP_TAPCELL_ROW_266_7896
*22504 TAP_TAPCELL_ROW_266_7897
*22505 TAP_TAPCELL_ROW_266_7898
*22506 TAP_TAPCELL_ROW_266_7899
*22507 TAP_TAPCELL_ROW_266_7900
*22508 TAP_TAPCELL_ROW_266_7901
*22509 TAP_TAPCELL_ROW_266_7902
*22510 TAP_TAPCELL_ROW_266_7903
*22511 TAP_TAPCELL_ROW_266_7904
*22512 TAP_TAPCELL_ROW_266_7905
*22513 TAP_TAPCELL_ROW_266_7906
*22514 TAP_TAPCELL_ROW_266_7907
*22515 TAP_TAPCELL_ROW_266_7908
*22516 TAP_TAPCELL_ROW_266_7909
*22517 TAP_TAPCELL_ROW_266_7910
*22518 TAP_TAPCELL_ROW_266_7911
*22519 TAP_TAPCELL_ROW_266_7912
*22520 TAP_TAPCELL_ROW_266_7913
*22521 TAP_TAPCELL_ROW_266_7914
*22522 TAP_TAPCELL_ROW_267_7915
*22523 TAP_TAPCELL_ROW_267_7916
*22524 TAP_TAPCELL_ROW_267_7917
*22525 TAP_TAPCELL_ROW_267_7918
*22526 TAP_TAPCELL_ROW_267_7919
*22527 TAP_TAPCELL_ROW_267_7920
*22528 TAP_TAPCELL_ROW_267_7921
*22529 TAP_TAPCELL_ROW_267_7922
*22530 TAP_TAPCELL_ROW_267_7923
*22531 TAP_TAPCELL_ROW_267_7924
*22532 TAP_TAPCELL_ROW_267_7925
*22533 TAP_TAPCELL_ROW_267_7926
*22534 TAP_TAPCELL_ROW_267_7927
*22535 TAP_TAPCELL_ROW_267_7928
*22536 TAP_TAPCELL_ROW_267_7929
*22537 TAP_TAPCELL_ROW_267_7930
*22538 TAP_TAPCELL_ROW_267_7931
*22539 TAP_TAPCELL_ROW_267_7932
*22540 TAP_TAPCELL_ROW_267_7933
*22541 TAP_TAPCELL_ROW_267_7934
*22542 TAP_TAPCELL_ROW_267_7935
*22543 TAP_TAPCELL_ROW_267_7936
*22544 TAP_TAPCELL_ROW_267_7937
*22545 TAP_TAPCELL_ROW_267_7938
*22546 TAP_TAPCELL_ROW_267_7939
*22547 TAP_TAPCELL_ROW_267_7940
*22548 TAP_TAPCELL_ROW_267_7941
*22549 TAP_TAPCELL_ROW_268_7942
*22550 TAP_TAPCELL_ROW_268_7943
*22551 TAP_TAPCELL_ROW_268_7944
*22552 TAP_TAPCELL_ROW_268_7945
*22553 TAP_TAPCELL_ROW_268_7946
*22554 TAP_TAPCELL_ROW_268_7947
*22555 TAP_TAPCELL_ROW_268_7948
*22556 TAP_TAPCELL_ROW_268_7949
*22557 TAP_TAPCELL_ROW_268_7950
*22558 TAP_TAPCELL_ROW_268_7951
*22559 TAP_TAPCELL_ROW_268_7952
*22560 TAP_TAPCELL_ROW_268_7953
*22561 TAP_TAPCELL_ROW_268_7954
*22562 TAP_TAPCELL_ROW_268_7955
*22563 TAP_TAPCELL_ROW_268_7956
*22564 TAP_TAPCELL_ROW_268_7957
*22565 TAP_TAPCELL_ROW_268_7958
*22566 TAP_TAPCELL_ROW_268_7959
*22567 TAP_TAPCELL_ROW_268_7960
*22568 TAP_TAPCELL_ROW_268_7961
*22569 TAP_TAPCELL_ROW_268_7962
*22570 TAP_TAPCELL_ROW_268_7963
*22571 TAP_TAPCELL_ROW_268_7964
*22572 TAP_TAPCELL_ROW_268_7965
*22573 TAP_TAPCELL_ROW_268_7966
*22574 TAP_TAPCELL_ROW_268_7967
*22575 TAP_TAPCELL_ROW_268_7968
*22576 TAP_TAPCELL_ROW_268_7969
*22577 TAP_TAPCELL_ROW_269_7970
*22578 TAP_TAPCELL_ROW_269_7971
*22579 TAP_TAPCELL_ROW_269_7972
*22580 TAP_TAPCELL_ROW_269_7973
*22581 TAP_TAPCELL_ROW_269_7974
*22582 TAP_TAPCELL_ROW_269_7975
*22583 TAP_TAPCELL_ROW_269_7976
*22584 TAP_TAPCELL_ROW_269_7977
*22585 TAP_TAPCELL_ROW_269_7978
*22586 TAP_TAPCELL_ROW_269_7979
*22587 TAP_TAPCELL_ROW_269_7980
*22588 TAP_TAPCELL_ROW_269_7981
*22589 TAP_TAPCELL_ROW_269_7982
*22590 TAP_TAPCELL_ROW_269_7983
*22591 TAP_TAPCELL_ROW_269_7984
*22592 TAP_TAPCELL_ROW_269_7985
*22593 TAP_TAPCELL_ROW_269_7986
*22594 TAP_TAPCELL_ROW_269_7987
*22595 TAP_TAPCELL_ROW_269_7988
*22596 TAP_TAPCELL_ROW_269_7989
*22597 TAP_TAPCELL_ROW_269_7990
*22598 TAP_TAPCELL_ROW_269_7991
*22599 TAP_TAPCELL_ROW_269_7992
*22600 TAP_TAPCELL_ROW_269_7993
*22601 TAP_TAPCELL_ROW_269_7994
*22602 TAP_TAPCELL_ROW_269_7995
*22603 TAP_TAPCELL_ROW_269_7996
*22604 TAP_TAPCELL_ROW_26_1287
*22605 TAP_TAPCELL_ROW_26_1288
*22606 TAP_TAPCELL_ROW_26_1289
*22607 TAP_TAPCELL_ROW_26_1290
*22608 TAP_TAPCELL_ROW_26_1291
*22609 TAP_TAPCELL_ROW_26_1292
*22610 TAP_TAPCELL_ROW_26_1293
*22611 TAP_TAPCELL_ROW_26_1294
*22612 TAP_TAPCELL_ROW_26_1295
*22613 TAP_TAPCELL_ROW_26_1296
*22614 TAP_TAPCELL_ROW_26_1297
*22615 TAP_TAPCELL_ROW_26_1298
*22616 TAP_TAPCELL_ROW_26_1299
*22617 TAP_TAPCELL_ROW_26_1300
*22618 TAP_TAPCELL_ROW_26_1301
*22619 TAP_TAPCELL_ROW_26_1302
*22620 TAP_TAPCELL_ROW_26_1303
*22621 TAP_TAPCELL_ROW_26_1304
*22622 TAP_TAPCELL_ROW_26_1305
*22623 TAP_TAPCELL_ROW_26_1306
*22624 TAP_TAPCELL_ROW_26_1307
*22625 TAP_TAPCELL_ROW_26_1308
*22626 TAP_TAPCELL_ROW_26_1309
*22627 TAP_TAPCELL_ROW_26_1310
*22628 TAP_TAPCELL_ROW_26_1311
*22629 TAP_TAPCELL_ROW_26_1312
*22630 TAP_TAPCELL_ROW_26_1313
*22631 TAP_TAPCELL_ROW_26_1314
*22632 TAP_TAPCELL_ROW_270_7997
*22633 TAP_TAPCELL_ROW_270_7998
*22634 TAP_TAPCELL_ROW_270_7999
*22635 TAP_TAPCELL_ROW_270_8000
*22636 TAP_TAPCELL_ROW_270_8001
*22637 TAP_TAPCELL_ROW_270_8002
*22638 TAP_TAPCELL_ROW_270_8003
*22639 TAP_TAPCELL_ROW_270_8004
*22640 TAP_TAPCELL_ROW_270_8005
*22641 TAP_TAPCELL_ROW_270_8006
*22642 TAP_TAPCELL_ROW_270_8007
*22643 TAP_TAPCELL_ROW_270_8008
*22644 TAP_TAPCELL_ROW_270_8009
*22645 TAP_TAPCELL_ROW_270_8010
*22646 TAP_TAPCELL_ROW_270_8011
*22647 TAP_TAPCELL_ROW_270_8012
*22648 TAP_TAPCELL_ROW_270_8013
*22649 TAP_TAPCELL_ROW_270_8014
*22650 TAP_TAPCELL_ROW_270_8015
*22651 TAP_TAPCELL_ROW_270_8016
*22652 TAP_TAPCELL_ROW_270_8017
*22653 TAP_TAPCELL_ROW_270_8018
*22654 TAP_TAPCELL_ROW_270_8019
*22655 TAP_TAPCELL_ROW_270_8020
*22656 TAP_TAPCELL_ROW_270_8021
*22657 TAP_TAPCELL_ROW_270_8022
*22658 TAP_TAPCELL_ROW_270_8023
*22659 TAP_TAPCELL_ROW_270_8024
*22660 TAP_TAPCELL_ROW_271_8025
*22661 TAP_TAPCELL_ROW_271_8026
*22662 TAP_TAPCELL_ROW_271_8027
*22663 TAP_TAPCELL_ROW_271_8028
*22664 TAP_TAPCELL_ROW_271_8029
*22665 TAP_TAPCELL_ROW_271_8030
*22666 TAP_TAPCELL_ROW_271_8031
*22667 TAP_TAPCELL_ROW_271_8032
*22668 TAP_TAPCELL_ROW_271_8033
*22669 TAP_TAPCELL_ROW_271_8034
*22670 TAP_TAPCELL_ROW_271_8035
*22671 TAP_TAPCELL_ROW_271_8036
*22672 TAP_TAPCELL_ROW_271_8037
*22673 TAP_TAPCELL_ROW_271_8038
*22674 TAP_TAPCELL_ROW_271_8039
*22675 TAP_TAPCELL_ROW_271_8040
*22676 TAP_TAPCELL_ROW_271_8041
*22677 TAP_TAPCELL_ROW_271_8042
*22678 TAP_TAPCELL_ROW_271_8043
*22679 TAP_TAPCELL_ROW_271_8044
*22680 TAP_TAPCELL_ROW_271_8045
*22681 TAP_TAPCELL_ROW_271_8046
*22682 TAP_TAPCELL_ROW_271_8047
*22683 TAP_TAPCELL_ROW_271_8048
*22684 TAP_TAPCELL_ROW_271_8049
*22685 TAP_TAPCELL_ROW_271_8050
*22686 TAP_TAPCELL_ROW_271_8051
*22687 TAP_TAPCELL_ROW_271_8052
*22688 TAP_TAPCELL_ROW_271_8053
*22689 TAP_TAPCELL_ROW_271_8054
*22690 TAP_TAPCELL_ROW_271_8055
*22691 TAP_TAPCELL_ROW_271_8056
*22692 TAP_TAPCELL_ROW_271_8057
*22693 TAP_TAPCELL_ROW_271_8058
*22694 TAP_TAPCELL_ROW_271_8059
*22695 TAP_TAPCELL_ROW_271_8060
*22696 TAP_TAPCELL_ROW_271_8061
*22697 TAP_TAPCELL_ROW_271_8062
*22698 TAP_TAPCELL_ROW_271_8063
*22699 TAP_TAPCELL_ROW_271_8064
*22700 TAP_TAPCELL_ROW_271_8065
*22701 TAP_TAPCELL_ROW_271_8066
*22702 TAP_TAPCELL_ROW_271_8067
*22703 TAP_TAPCELL_ROW_271_8068
*22704 TAP_TAPCELL_ROW_271_8069
*22705 TAP_TAPCELL_ROW_271_8070
*22706 TAP_TAPCELL_ROW_271_8071
*22707 TAP_TAPCELL_ROW_271_8072
*22708 TAP_TAPCELL_ROW_271_8073
*22709 TAP_TAPCELL_ROW_271_8074
*22710 TAP_TAPCELL_ROW_271_8075
*22711 TAP_TAPCELL_ROW_271_8076
*22712 TAP_TAPCELL_ROW_271_8077
*22713 TAP_TAPCELL_ROW_271_8078
*22714 TAP_TAPCELL_ROW_271_8079
*22715 TAP_TAPCELL_ROW_271_8080
*22716 TAP_TAPCELL_ROW_27_1315
*22717 TAP_TAPCELL_ROW_27_1316
*22718 TAP_TAPCELL_ROW_27_1317
*22719 TAP_TAPCELL_ROW_27_1318
*22720 TAP_TAPCELL_ROW_27_1319
*22721 TAP_TAPCELL_ROW_27_1320
*22722 TAP_TAPCELL_ROW_27_1321
*22723 TAP_TAPCELL_ROW_27_1322
*22724 TAP_TAPCELL_ROW_27_1323
*22725 TAP_TAPCELL_ROW_27_1324
*22726 TAP_TAPCELL_ROW_27_1325
*22727 TAP_TAPCELL_ROW_27_1326
*22728 TAP_TAPCELL_ROW_27_1327
*22729 TAP_TAPCELL_ROW_27_1328
*22730 TAP_TAPCELL_ROW_27_1329
*22731 TAP_TAPCELL_ROW_27_1330
*22732 TAP_TAPCELL_ROW_27_1331
*22733 TAP_TAPCELL_ROW_27_1332
*22734 TAP_TAPCELL_ROW_27_1333
*22735 TAP_TAPCELL_ROW_27_1334
*22736 TAP_TAPCELL_ROW_27_1335
*22737 TAP_TAPCELL_ROW_27_1336
*22738 TAP_TAPCELL_ROW_27_1337
*22739 TAP_TAPCELL_ROW_27_1338
*22740 TAP_TAPCELL_ROW_27_1339
*22741 TAP_TAPCELL_ROW_27_1340
*22742 TAP_TAPCELL_ROW_27_1341
*22743 TAP_TAPCELL_ROW_28_1342
*22744 TAP_TAPCELL_ROW_28_1343
*22745 TAP_TAPCELL_ROW_28_1344
*22746 TAP_TAPCELL_ROW_28_1345
*22747 TAP_TAPCELL_ROW_28_1346
*22748 TAP_TAPCELL_ROW_28_1347
*22749 TAP_TAPCELL_ROW_28_1348
*22750 TAP_TAPCELL_ROW_28_1349
*22751 TAP_TAPCELL_ROW_28_1350
*22752 TAP_TAPCELL_ROW_28_1351
*22753 TAP_TAPCELL_ROW_28_1352
*22754 TAP_TAPCELL_ROW_28_1353
*22755 TAP_TAPCELL_ROW_28_1354
*22756 TAP_TAPCELL_ROW_28_1355
*22757 TAP_TAPCELL_ROW_28_1356
*22758 TAP_TAPCELL_ROW_28_1357
*22759 TAP_TAPCELL_ROW_28_1358
*22760 TAP_TAPCELL_ROW_28_1359
*22761 TAP_TAPCELL_ROW_28_1360
*22762 TAP_TAPCELL_ROW_28_1361
*22763 TAP_TAPCELL_ROW_28_1362
*22764 TAP_TAPCELL_ROW_28_1363
*22765 TAP_TAPCELL_ROW_28_1364
*22766 TAP_TAPCELL_ROW_28_1365
*22767 TAP_TAPCELL_ROW_28_1366
*22768 TAP_TAPCELL_ROW_28_1367
*22769 TAP_TAPCELL_ROW_28_1368
*22770 TAP_TAPCELL_ROW_28_1369
*22771 TAP_TAPCELL_ROW_29_1370
*22772 TAP_TAPCELL_ROW_29_1371
*22773 TAP_TAPCELL_ROW_29_1372
*22774 TAP_TAPCELL_ROW_29_1373
*22775 TAP_TAPCELL_ROW_29_1374
*22776 TAP_TAPCELL_ROW_29_1375
*22777 TAP_TAPCELL_ROW_29_1376
*22778 TAP_TAPCELL_ROW_29_1377
*22779 TAP_TAPCELL_ROW_29_1378
*22780 TAP_TAPCELL_ROW_29_1379
*22781 TAP_TAPCELL_ROW_29_1380
*22782 TAP_TAPCELL_ROW_29_1381
*22783 TAP_TAPCELL_ROW_29_1382
*22784 TAP_TAPCELL_ROW_29_1383
*22785 TAP_TAPCELL_ROW_29_1384
*22786 TAP_TAPCELL_ROW_29_1385
*22787 TAP_TAPCELL_ROW_29_1386
*22788 TAP_TAPCELL_ROW_29_1387
*22789 TAP_TAPCELL_ROW_29_1388
*22790 TAP_TAPCELL_ROW_29_1389
*22791 TAP_TAPCELL_ROW_29_1390
*22792 TAP_TAPCELL_ROW_29_1391
*22793 TAP_TAPCELL_ROW_29_1392
*22794 TAP_TAPCELL_ROW_29_1393
*22795 TAP_TAPCELL_ROW_29_1394
*22796 TAP_TAPCELL_ROW_29_1395
*22797 TAP_TAPCELL_ROW_29_1396
*22798 TAP_TAPCELL_ROW_2_627
*22799 TAP_TAPCELL_ROW_2_628
*22800 TAP_TAPCELL_ROW_2_629
*22801 TAP_TAPCELL_ROW_2_630
*22802 TAP_TAPCELL_ROW_2_631
*22803 TAP_TAPCELL_ROW_2_632
*22804 TAP_TAPCELL_ROW_2_633
*22805 TAP_TAPCELL_ROW_2_634
*22806 TAP_TAPCELL_ROW_2_635
*22807 TAP_TAPCELL_ROW_2_636
*22808 TAP_TAPCELL_ROW_2_637
*22809 TAP_TAPCELL_ROW_2_638
*22810 TAP_TAPCELL_ROW_2_639
*22811 TAP_TAPCELL_ROW_2_640
*22812 TAP_TAPCELL_ROW_2_641
*22813 TAP_TAPCELL_ROW_2_642
*22814 TAP_TAPCELL_ROW_2_643
*22815 TAP_TAPCELL_ROW_2_644
*22816 TAP_TAPCELL_ROW_2_645
*22817 TAP_TAPCELL_ROW_2_646
*22818 TAP_TAPCELL_ROW_2_647
*22819 TAP_TAPCELL_ROW_2_648
*22820 TAP_TAPCELL_ROW_2_649
*22821 TAP_TAPCELL_ROW_2_650
*22822 TAP_TAPCELL_ROW_2_651
*22823 TAP_TAPCELL_ROW_2_652
*22824 TAP_TAPCELL_ROW_2_653
*22825 TAP_TAPCELL_ROW_2_654
*22826 TAP_TAPCELL_ROW_30_1397
*22827 TAP_TAPCELL_ROW_30_1398
*22828 TAP_TAPCELL_ROW_30_1399
*22829 TAP_TAPCELL_ROW_30_1400
*22830 TAP_TAPCELL_ROW_30_1401
*22831 TAP_TAPCELL_ROW_30_1402
*22832 TAP_TAPCELL_ROW_30_1403
*22833 TAP_TAPCELL_ROW_30_1404
*22834 TAP_TAPCELL_ROW_30_1405
*22835 TAP_TAPCELL_ROW_30_1406
*22836 TAP_TAPCELL_ROW_30_1407
*22837 TAP_TAPCELL_ROW_30_1408
*22838 TAP_TAPCELL_ROW_30_1409
*22839 TAP_TAPCELL_ROW_30_1410
*22840 TAP_TAPCELL_ROW_30_1411
*22841 TAP_TAPCELL_ROW_30_1412
*22842 TAP_TAPCELL_ROW_30_1413
*22843 TAP_TAPCELL_ROW_30_1414
*22844 TAP_TAPCELL_ROW_30_1415
*22845 TAP_TAPCELL_ROW_30_1416
*22846 TAP_TAPCELL_ROW_30_1417
*22847 TAP_TAPCELL_ROW_30_1418
*22848 TAP_TAPCELL_ROW_30_1419
*22849 TAP_TAPCELL_ROW_30_1420
*22850 TAP_TAPCELL_ROW_30_1421
*22851 TAP_TAPCELL_ROW_30_1422
*22852 TAP_TAPCELL_ROW_30_1423
*22853 TAP_TAPCELL_ROW_30_1424
*22854 TAP_TAPCELL_ROW_31_1425
*22855 TAP_TAPCELL_ROW_31_1426
*22856 TAP_TAPCELL_ROW_31_1427
*22857 TAP_TAPCELL_ROW_31_1428
*22858 TAP_TAPCELL_ROW_31_1429
*22859 TAP_TAPCELL_ROW_31_1430
*22860 TAP_TAPCELL_ROW_31_1431
*22861 TAP_TAPCELL_ROW_31_1432
*22862 TAP_TAPCELL_ROW_31_1433
*22863 TAP_TAPCELL_ROW_31_1434
*22864 TAP_TAPCELL_ROW_31_1435
*22865 TAP_TAPCELL_ROW_31_1436
*22866 TAP_TAPCELL_ROW_31_1437
*22867 TAP_TAPCELL_ROW_31_1438
*22868 TAP_TAPCELL_ROW_31_1439
*22869 TAP_TAPCELL_ROW_31_1440
*22870 TAP_TAPCELL_ROW_31_1441
*22871 TAP_TAPCELL_ROW_31_1442
*22872 TAP_TAPCELL_ROW_31_1443
*22873 TAP_TAPCELL_ROW_31_1444
*22874 TAP_TAPCELL_ROW_31_1445
*22875 TAP_TAPCELL_ROW_31_1446
*22876 TAP_TAPCELL_ROW_31_1447
*22877 TAP_TAPCELL_ROW_31_1448
*22878 TAP_TAPCELL_ROW_31_1449
*22879 TAP_TAPCELL_ROW_31_1450
*22880 TAP_TAPCELL_ROW_31_1451
*22881 TAP_TAPCELL_ROW_32_1452
*22882 TAP_TAPCELL_ROW_32_1453
*22883 TAP_TAPCELL_ROW_32_1454
*22884 TAP_TAPCELL_ROW_32_1455
*22885 TAP_TAPCELL_ROW_32_1456
*22886 TAP_TAPCELL_ROW_32_1457
*22887 TAP_TAPCELL_ROW_32_1458
*22888 TAP_TAPCELL_ROW_32_1459
*22889 TAP_TAPCELL_ROW_32_1460
*22890 TAP_TAPCELL_ROW_32_1461
*22891 TAP_TAPCELL_ROW_32_1462
*22892 TAP_TAPCELL_ROW_32_1463
*22893 TAP_TAPCELL_ROW_32_1464
*22894 TAP_TAPCELL_ROW_32_1465
*22895 TAP_TAPCELL_ROW_32_1466
*22896 TAP_TAPCELL_ROW_32_1467
*22897 TAP_TAPCELL_ROW_32_1468
*22898 TAP_TAPCELL_ROW_32_1469
*22899 TAP_TAPCELL_ROW_32_1470
*22900 TAP_TAPCELL_ROW_32_1471
*22901 TAP_TAPCELL_ROW_32_1472
*22902 TAP_TAPCELL_ROW_32_1473
*22903 TAP_TAPCELL_ROW_32_1474
*22904 TAP_TAPCELL_ROW_32_1475
*22905 TAP_TAPCELL_ROW_32_1476
*22906 TAP_TAPCELL_ROW_32_1477
*22907 TAP_TAPCELL_ROW_32_1478
*22908 TAP_TAPCELL_ROW_32_1479
*22909 TAP_TAPCELL_ROW_33_1480
*22910 TAP_TAPCELL_ROW_33_1481
*22911 TAP_TAPCELL_ROW_33_1482
*22912 TAP_TAPCELL_ROW_33_1483
*22913 TAP_TAPCELL_ROW_33_1484
*22914 TAP_TAPCELL_ROW_33_1485
*22915 TAP_TAPCELL_ROW_33_1486
*22916 TAP_TAPCELL_ROW_33_1487
*22917 TAP_TAPCELL_ROW_33_1488
*22918 TAP_TAPCELL_ROW_33_1489
*22919 TAP_TAPCELL_ROW_33_1490
*22920 TAP_TAPCELL_ROW_33_1491
*22921 TAP_TAPCELL_ROW_33_1492
*22922 TAP_TAPCELL_ROW_33_1493
*22923 TAP_TAPCELL_ROW_33_1494
*22924 TAP_TAPCELL_ROW_33_1495
*22925 TAP_TAPCELL_ROW_33_1496
*22926 TAP_TAPCELL_ROW_33_1497
*22927 TAP_TAPCELL_ROW_33_1498
*22928 TAP_TAPCELL_ROW_33_1499
*22929 TAP_TAPCELL_ROW_33_1500
*22930 TAP_TAPCELL_ROW_33_1501
*22931 TAP_TAPCELL_ROW_33_1502
*22932 TAP_TAPCELL_ROW_33_1503
*22933 TAP_TAPCELL_ROW_33_1504
*22934 TAP_TAPCELL_ROW_33_1505
*22935 TAP_TAPCELL_ROW_33_1506
*22936 TAP_TAPCELL_ROW_34_1507
*22937 TAP_TAPCELL_ROW_34_1508
*22938 TAP_TAPCELL_ROW_34_1509
*22939 TAP_TAPCELL_ROW_34_1510
*22940 TAP_TAPCELL_ROW_34_1511
*22941 TAP_TAPCELL_ROW_34_1512
*22942 TAP_TAPCELL_ROW_34_1513
*22943 TAP_TAPCELL_ROW_34_1514
*22944 TAP_TAPCELL_ROW_34_1515
*22945 TAP_TAPCELL_ROW_34_1516
*22946 TAP_TAPCELL_ROW_34_1517
*22947 TAP_TAPCELL_ROW_34_1518
*22948 TAP_TAPCELL_ROW_34_1519
*22949 TAP_TAPCELL_ROW_34_1520
*22950 TAP_TAPCELL_ROW_34_1521
*22951 TAP_TAPCELL_ROW_34_1522
*22952 TAP_TAPCELL_ROW_34_1523
*22953 TAP_TAPCELL_ROW_34_1524
*22954 TAP_TAPCELL_ROW_34_1525
*22955 TAP_TAPCELL_ROW_34_1526
*22956 TAP_TAPCELL_ROW_34_1527
*22957 TAP_TAPCELL_ROW_34_1528
*22958 TAP_TAPCELL_ROW_34_1529
*22959 TAP_TAPCELL_ROW_34_1530
*22960 TAP_TAPCELL_ROW_34_1531
*22961 TAP_TAPCELL_ROW_34_1532
*22962 TAP_TAPCELL_ROW_34_1533
*22963 TAP_TAPCELL_ROW_34_1534
*22964 TAP_TAPCELL_ROW_35_1535
*22965 TAP_TAPCELL_ROW_35_1536
*22966 TAP_TAPCELL_ROW_35_1537
*22967 TAP_TAPCELL_ROW_35_1538
*22968 TAP_TAPCELL_ROW_35_1539
*22969 TAP_TAPCELL_ROW_35_1540
*22970 TAP_TAPCELL_ROW_35_1541
*22971 TAP_TAPCELL_ROW_35_1542
*22972 TAP_TAPCELL_ROW_35_1543
*22973 TAP_TAPCELL_ROW_35_1544
*22974 TAP_TAPCELL_ROW_35_1545
*22975 TAP_TAPCELL_ROW_35_1546
*22976 TAP_TAPCELL_ROW_35_1547
*22977 TAP_TAPCELL_ROW_35_1548
*22978 TAP_TAPCELL_ROW_35_1549
*22979 TAP_TAPCELL_ROW_35_1550
*22980 TAP_TAPCELL_ROW_35_1551
*22981 TAP_TAPCELL_ROW_35_1552
*22982 TAP_TAPCELL_ROW_35_1553
*22983 TAP_TAPCELL_ROW_35_1554
*22984 TAP_TAPCELL_ROW_35_1555
*22985 TAP_TAPCELL_ROW_35_1556
*22986 TAP_TAPCELL_ROW_35_1557
*22987 TAP_TAPCELL_ROW_35_1558
*22988 TAP_TAPCELL_ROW_35_1559
*22989 TAP_TAPCELL_ROW_35_1560
*22990 TAP_TAPCELL_ROW_35_1561
*22991 TAP_TAPCELL_ROW_36_1562
*22992 TAP_TAPCELL_ROW_36_1563
*22993 TAP_TAPCELL_ROW_36_1564
*22994 TAP_TAPCELL_ROW_36_1565
*22995 TAP_TAPCELL_ROW_36_1566
*22996 TAP_TAPCELL_ROW_36_1567
*22997 TAP_TAPCELL_ROW_36_1568
*22998 TAP_TAPCELL_ROW_36_1569
*22999 TAP_TAPCELL_ROW_36_1570
*23000 TAP_TAPCELL_ROW_36_1571
*23001 TAP_TAPCELL_ROW_36_1572
*23002 TAP_TAPCELL_ROW_36_1573
*23003 TAP_TAPCELL_ROW_36_1574
*23004 TAP_TAPCELL_ROW_36_1575
*23005 TAP_TAPCELL_ROW_36_1576
*23006 TAP_TAPCELL_ROW_36_1577
*23007 TAP_TAPCELL_ROW_36_1578
*23008 TAP_TAPCELL_ROW_36_1579
*23009 TAP_TAPCELL_ROW_36_1580
*23010 TAP_TAPCELL_ROW_36_1581
*23011 TAP_TAPCELL_ROW_36_1582
*23012 TAP_TAPCELL_ROW_36_1583
*23013 TAP_TAPCELL_ROW_36_1584
*23014 TAP_TAPCELL_ROW_36_1585
*23015 TAP_TAPCELL_ROW_36_1586
*23016 TAP_TAPCELL_ROW_36_1587
*23017 TAP_TAPCELL_ROW_36_1588
*23018 TAP_TAPCELL_ROW_36_1589
*23019 TAP_TAPCELL_ROW_37_1590
*23020 TAP_TAPCELL_ROW_37_1591
*23021 TAP_TAPCELL_ROW_37_1592
*23022 TAP_TAPCELL_ROW_37_1593
*23023 TAP_TAPCELL_ROW_37_1594
*23024 TAP_TAPCELL_ROW_37_1595
*23025 TAP_TAPCELL_ROW_37_1596
*23026 TAP_TAPCELL_ROW_37_1597
*23027 TAP_TAPCELL_ROW_37_1598
*23028 TAP_TAPCELL_ROW_37_1599
*23029 TAP_TAPCELL_ROW_37_1600
*23030 TAP_TAPCELL_ROW_37_1601
*23031 TAP_TAPCELL_ROW_37_1602
*23032 TAP_TAPCELL_ROW_37_1603
*23033 TAP_TAPCELL_ROW_37_1604
*23034 TAP_TAPCELL_ROW_37_1605
*23035 TAP_TAPCELL_ROW_37_1606
*23036 TAP_TAPCELL_ROW_37_1607
*23037 TAP_TAPCELL_ROW_37_1608
*23038 TAP_TAPCELL_ROW_37_1609
*23039 TAP_TAPCELL_ROW_37_1610
*23040 TAP_TAPCELL_ROW_37_1611
*23041 TAP_TAPCELL_ROW_37_1612
*23042 TAP_TAPCELL_ROW_37_1613
*23043 TAP_TAPCELL_ROW_37_1614
*23044 TAP_TAPCELL_ROW_37_1615
*23045 TAP_TAPCELL_ROW_37_1616
*23046 TAP_TAPCELL_ROW_38_1617
*23047 TAP_TAPCELL_ROW_38_1618
*23048 TAP_TAPCELL_ROW_38_1619
*23049 TAP_TAPCELL_ROW_38_1620
*23050 TAP_TAPCELL_ROW_38_1621
*23051 TAP_TAPCELL_ROW_38_1622
*23052 TAP_TAPCELL_ROW_38_1623
*23053 TAP_TAPCELL_ROW_38_1624
*23054 TAP_TAPCELL_ROW_38_1625
*23055 TAP_TAPCELL_ROW_38_1626
*23056 TAP_TAPCELL_ROW_38_1627
*23057 TAP_TAPCELL_ROW_38_1628
*23058 TAP_TAPCELL_ROW_38_1629
*23059 TAP_TAPCELL_ROW_38_1630
*23060 TAP_TAPCELL_ROW_38_1631
*23061 TAP_TAPCELL_ROW_38_1632
*23062 TAP_TAPCELL_ROW_38_1633
*23063 TAP_TAPCELL_ROW_38_1634
*23064 TAP_TAPCELL_ROW_38_1635
*23065 TAP_TAPCELL_ROW_38_1636
*23066 TAP_TAPCELL_ROW_38_1637
*23067 TAP_TAPCELL_ROW_38_1638
*23068 TAP_TAPCELL_ROW_38_1639
*23069 TAP_TAPCELL_ROW_38_1640
*23070 TAP_TAPCELL_ROW_38_1641
*23071 TAP_TAPCELL_ROW_38_1642
*23072 TAP_TAPCELL_ROW_38_1643
*23073 TAP_TAPCELL_ROW_38_1644
*23074 TAP_TAPCELL_ROW_39_1645
*23075 TAP_TAPCELL_ROW_39_1646
*23076 TAP_TAPCELL_ROW_39_1647
*23077 TAP_TAPCELL_ROW_39_1648
*23078 TAP_TAPCELL_ROW_39_1649
*23079 TAP_TAPCELL_ROW_39_1650
*23080 TAP_TAPCELL_ROW_39_1651
*23081 TAP_TAPCELL_ROW_39_1652
*23082 TAP_TAPCELL_ROW_39_1653
*23083 TAP_TAPCELL_ROW_39_1654
*23084 TAP_TAPCELL_ROW_39_1655
*23085 TAP_TAPCELL_ROW_39_1656
*23086 TAP_TAPCELL_ROW_39_1657
*23087 TAP_TAPCELL_ROW_39_1658
*23088 TAP_TAPCELL_ROW_39_1659
*23089 TAP_TAPCELL_ROW_39_1660
*23090 TAP_TAPCELL_ROW_39_1661
*23091 TAP_TAPCELL_ROW_39_1662
*23092 TAP_TAPCELL_ROW_39_1663
*23093 TAP_TAPCELL_ROW_39_1664
*23094 TAP_TAPCELL_ROW_39_1665
*23095 TAP_TAPCELL_ROW_39_1666
*23096 TAP_TAPCELL_ROW_39_1667
*23097 TAP_TAPCELL_ROW_39_1668
*23098 TAP_TAPCELL_ROW_39_1669
*23099 TAP_TAPCELL_ROW_39_1670
*23100 TAP_TAPCELL_ROW_39_1671
*23101 TAP_TAPCELL_ROW_3_655
*23102 TAP_TAPCELL_ROW_3_656
*23103 TAP_TAPCELL_ROW_3_657
*23104 TAP_TAPCELL_ROW_3_658
*23105 TAP_TAPCELL_ROW_3_659
*23106 TAP_TAPCELL_ROW_3_660
*23107 TAP_TAPCELL_ROW_3_661
*23108 TAP_TAPCELL_ROW_3_662
*23109 TAP_TAPCELL_ROW_3_663
*23110 TAP_TAPCELL_ROW_3_664
*23111 TAP_TAPCELL_ROW_3_665
*23112 TAP_TAPCELL_ROW_3_666
*23113 TAP_TAPCELL_ROW_3_667
*23114 TAP_TAPCELL_ROW_3_668
*23115 TAP_TAPCELL_ROW_3_669
*23116 TAP_TAPCELL_ROW_3_670
*23117 TAP_TAPCELL_ROW_3_671
*23118 TAP_TAPCELL_ROW_3_672
*23119 TAP_TAPCELL_ROW_3_673
*23120 TAP_TAPCELL_ROW_3_674
*23121 TAP_TAPCELL_ROW_3_675
*23122 TAP_TAPCELL_ROW_3_676
*23123 TAP_TAPCELL_ROW_3_677
*23124 TAP_TAPCELL_ROW_3_678
*23125 TAP_TAPCELL_ROW_3_679
*23126 TAP_TAPCELL_ROW_3_680
*23127 TAP_TAPCELL_ROW_3_681
*23128 TAP_TAPCELL_ROW_40_1672
*23129 TAP_TAPCELL_ROW_40_1673
*23130 TAP_TAPCELL_ROW_40_1674
*23131 TAP_TAPCELL_ROW_40_1675
*23132 TAP_TAPCELL_ROW_40_1676
*23133 TAP_TAPCELL_ROW_40_1677
*23134 TAP_TAPCELL_ROW_40_1678
*23135 TAP_TAPCELL_ROW_40_1679
*23136 TAP_TAPCELL_ROW_40_1680
*23137 TAP_TAPCELL_ROW_40_1681
*23138 TAP_TAPCELL_ROW_40_1682
*23139 TAP_TAPCELL_ROW_40_1683
*23140 TAP_TAPCELL_ROW_40_1684
*23141 TAP_TAPCELL_ROW_40_1685
*23142 TAP_TAPCELL_ROW_40_1686
*23143 TAP_TAPCELL_ROW_40_1687
*23144 TAP_TAPCELL_ROW_40_1688
*23145 TAP_TAPCELL_ROW_40_1689
*23146 TAP_TAPCELL_ROW_40_1690
*23147 TAP_TAPCELL_ROW_40_1691
*23148 TAP_TAPCELL_ROW_40_1692
*23149 TAP_TAPCELL_ROW_40_1693
*23150 TAP_TAPCELL_ROW_40_1694
*23151 TAP_TAPCELL_ROW_40_1695
*23152 TAP_TAPCELL_ROW_40_1696
*23153 TAP_TAPCELL_ROW_40_1697
*23154 TAP_TAPCELL_ROW_40_1698
*23155 TAP_TAPCELL_ROW_40_1699
*23156 TAP_TAPCELL_ROW_41_1700
*23157 TAP_TAPCELL_ROW_41_1701
*23158 TAP_TAPCELL_ROW_41_1702
*23159 TAP_TAPCELL_ROW_41_1703
*23160 TAP_TAPCELL_ROW_41_1704
*23161 TAP_TAPCELL_ROW_41_1705
*23162 TAP_TAPCELL_ROW_41_1706
*23163 TAP_TAPCELL_ROW_41_1707
*23164 TAP_TAPCELL_ROW_41_1708
*23165 TAP_TAPCELL_ROW_41_1709
*23166 TAP_TAPCELL_ROW_41_1710
*23167 TAP_TAPCELL_ROW_41_1711
*23168 TAP_TAPCELL_ROW_41_1712
*23169 TAP_TAPCELL_ROW_41_1713
*23170 TAP_TAPCELL_ROW_41_1714
*23171 TAP_TAPCELL_ROW_41_1715
*23172 TAP_TAPCELL_ROW_41_1716
*23173 TAP_TAPCELL_ROW_41_1717
*23174 TAP_TAPCELL_ROW_41_1718
*23175 TAP_TAPCELL_ROW_41_1719
*23176 TAP_TAPCELL_ROW_41_1720
*23177 TAP_TAPCELL_ROW_41_1721
*23178 TAP_TAPCELL_ROW_41_1722
*23179 TAP_TAPCELL_ROW_41_1723
*23180 TAP_TAPCELL_ROW_41_1724
*23181 TAP_TAPCELL_ROW_41_1725
*23182 TAP_TAPCELL_ROW_41_1726
*23183 TAP_TAPCELL_ROW_42_1727
*23184 TAP_TAPCELL_ROW_42_1728
*23185 TAP_TAPCELL_ROW_42_1729
*23186 TAP_TAPCELL_ROW_42_1730
*23187 TAP_TAPCELL_ROW_42_1731
*23188 TAP_TAPCELL_ROW_42_1732
*23189 TAP_TAPCELL_ROW_42_1733
*23190 TAP_TAPCELL_ROW_42_1734
*23191 TAP_TAPCELL_ROW_42_1735
*23192 TAP_TAPCELL_ROW_42_1736
*23193 TAP_TAPCELL_ROW_42_1737
*23194 TAP_TAPCELL_ROW_42_1738
*23195 TAP_TAPCELL_ROW_42_1739
*23196 TAP_TAPCELL_ROW_42_1740
*23197 TAP_TAPCELL_ROW_42_1741
*23198 TAP_TAPCELL_ROW_42_1742
*23199 TAP_TAPCELL_ROW_42_1743
*23200 TAP_TAPCELL_ROW_42_1744
*23201 TAP_TAPCELL_ROW_42_1745
*23202 TAP_TAPCELL_ROW_42_1746
*23203 TAP_TAPCELL_ROW_42_1747
*23204 TAP_TAPCELL_ROW_42_1748
*23205 TAP_TAPCELL_ROW_42_1749
*23206 TAP_TAPCELL_ROW_42_1750
*23207 TAP_TAPCELL_ROW_42_1751
*23208 TAP_TAPCELL_ROW_42_1752
*23209 TAP_TAPCELL_ROW_42_1753
*23210 TAP_TAPCELL_ROW_42_1754
*23211 TAP_TAPCELL_ROW_43_1755
*23212 TAP_TAPCELL_ROW_43_1756
*23213 TAP_TAPCELL_ROW_43_1757
*23214 TAP_TAPCELL_ROW_43_1758
*23215 TAP_TAPCELL_ROW_43_1759
*23216 TAP_TAPCELL_ROW_43_1760
*23217 TAP_TAPCELL_ROW_43_1761
*23218 TAP_TAPCELL_ROW_43_1762
*23219 TAP_TAPCELL_ROW_43_1763
*23220 TAP_TAPCELL_ROW_43_1764
*23221 TAP_TAPCELL_ROW_43_1765
*23222 TAP_TAPCELL_ROW_43_1766
*23223 TAP_TAPCELL_ROW_43_1767
*23224 TAP_TAPCELL_ROW_43_1768
*23225 TAP_TAPCELL_ROW_43_1769
*23226 TAP_TAPCELL_ROW_43_1770
*23227 TAP_TAPCELL_ROW_43_1771
*23228 TAP_TAPCELL_ROW_43_1772
*23229 TAP_TAPCELL_ROW_43_1773
*23230 TAP_TAPCELL_ROW_43_1774
*23231 TAP_TAPCELL_ROW_43_1775
*23232 TAP_TAPCELL_ROW_43_1776
*23233 TAP_TAPCELL_ROW_43_1777
*23234 TAP_TAPCELL_ROW_43_1778
*23235 TAP_TAPCELL_ROW_43_1779
*23236 TAP_TAPCELL_ROW_43_1780
*23237 TAP_TAPCELL_ROW_43_1781
*23238 TAP_TAPCELL_ROW_44_1782
*23239 TAP_TAPCELL_ROW_44_1783
*23240 TAP_TAPCELL_ROW_44_1784
*23241 TAP_TAPCELL_ROW_44_1785
*23242 TAP_TAPCELL_ROW_44_1786
*23243 TAP_TAPCELL_ROW_44_1787
*23244 TAP_TAPCELL_ROW_44_1788
*23245 TAP_TAPCELL_ROW_44_1789
*23246 TAP_TAPCELL_ROW_44_1790
*23247 TAP_TAPCELL_ROW_44_1791
*23248 TAP_TAPCELL_ROW_44_1792
*23249 TAP_TAPCELL_ROW_44_1793
*23250 TAP_TAPCELL_ROW_44_1794
*23251 TAP_TAPCELL_ROW_44_1795
*23252 TAP_TAPCELL_ROW_44_1796
*23253 TAP_TAPCELL_ROW_44_1797
*23254 TAP_TAPCELL_ROW_44_1798
*23255 TAP_TAPCELL_ROW_44_1799
*23256 TAP_TAPCELL_ROW_44_1800
*23257 TAP_TAPCELL_ROW_44_1801
*23258 TAP_TAPCELL_ROW_44_1802
*23259 TAP_TAPCELL_ROW_44_1803
*23260 TAP_TAPCELL_ROW_44_1804
*23261 TAP_TAPCELL_ROW_44_1805
*23262 TAP_TAPCELL_ROW_44_1806
*23263 TAP_TAPCELL_ROW_44_1807
*23264 TAP_TAPCELL_ROW_44_1808
*23265 TAP_TAPCELL_ROW_44_1809
*23266 TAP_TAPCELL_ROW_45_1810
*23267 TAP_TAPCELL_ROW_45_1811
*23268 TAP_TAPCELL_ROW_45_1812
*23269 TAP_TAPCELL_ROW_45_1813
*23270 TAP_TAPCELL_ROW_45_1814
*23271 TAP_TAPCELL_ROW_45_1815
*23272 TAP_TAPCELL_ROW_45_1816
*23273 TAP_TAPCELL_ROW_45_1817
*23274 TAP_TAPCELL_ROW_45_1818
*23275 TAP_TAPCELL_ROW_45_1819
*23276 TAP_TAPCELL_ROW_45_1820
*23277 TAP_TAPCELL_ROW_45_1821
*23278 TAP_TAPCELL_ROW_45_1822
*23279 TAP_TAPCELL_ROW_45_1823
*23280 TAP_TAPCELL_ROW_45_1824
*23281 TAP_TAPCELL_ROW_45_1825
*23282 TAP_TAPCELL_ROW_45_1826
*23283 TAP_TAPCELL_ROW_45_1827
*23284 TAP_TAPCELL_ROW_45_1828
*23285 TAP_TAPCELL_ROW_45_1829
*23286 TAP_TAPCELL_ROW_45_1830
*23287 TAP_TAPCELL_ROW_45_1831
*23288 TAP_TAPCELL_ROW_45_1832
*23289 TAP_TAPCELL_ROW_45_1833
*23290 TAP_TAPCELL_ROW_45_1834
*23291 TAP_TAPCELL_ROW_45_1835
*23292 TAP_TAPCELL_ROW_45_1836
*23293 TAP_TAPCELL_ROW_46_1837
*23294 TAP_TAPCELL_ROW_46_1838
*23295 TAP_TAPCELL_ROW_46_1839
*23296 TAP_TAPCELL_ROW_46_1840
*23297 TAP_TAPCELL_ROW_46_1841
*23298 TAP_TAPCELL_ROW_46_1842
*23299 TAP_TAPCELL_ROW_46_1843
*23300 TAP_TAPCELL_ROW_46_1844
*23301 TAP_TAPCELL_ROW_46_1845
*23302 TAP_TAPCELL_ROW_46_1846
*23303 TAP_TAPCELL_ROW_46_1847
*23304 TAP_TAPCELL_ROW_46_1848
*23305 TAP_TAPCELL_ROW_46_1849
*23306 TAP_TAPCELL_ROW_46_1850
*23307 TAP_TAPCELL_ROW_46_1851
*23308 TAP_TAPCELL_ROW_46_1852
*23309 TAP_TAPCELL_ROW_46_1853
*23310 TAP_TAPCELL_ROW_46_1854
*23311 TAP_TAPCELL_ROW_46_1855
*23312 TAP_TAPCELL_ROW_46_1856
*23313 TAP_TAPCELL_ROW_46_1857
*23314 TAP_TAPCELL_ROW_46_1858
*23315 TAP_TAPCELL_ROW_46_1859
*23316 TAP_TAPCELL_ROW_46_1860
*23317 TAP_TAPCELL_ROW_46_1861
*23318 TAP_TAPCELL_ROW_46_1862
*23319 TAP_TAPCELL_ROW_46_1863
*23320 TAP_TAPCELL_ROW_46_1864
*23321 TAP_TAPCELL_ROW_47_1865
*23322 TAP_TAPCELL_ROW_47_1866
*23323 TAP_TAPCELL_ROW_47_1867
*23324 TAP_TAPCELL_ROW_47_1868
*23325 TAP_TAPCELL_ROW_47_1869
*23326 TAP_TAPCELL_ROW_47_1870
*23327 TAP_TAPCELL_ROW_47_1871
*23328 TAP_TAPCELL_ROW_47_1872
*23329 TAP_TAPCELL_ROW_47_1873
*23330 TAP_TAPCELL_ROW_47_1874
*23331 TAP_TAPCELL_ROW_47_1875
*23332 TAP_TAPCELL_ROW_47_1876
*23333 TAP_TAPCELL_ROW_47_1877
*23334 TAP_TAPCELL_ROW_47_1878
*23335 TAP_TAPCELL_ROW_47_1879
*23336 TAP_TAPCELL_ROW_47_1880
*23337 TAP_TAPCELL_ROW_47_1881
*23338 TAP_TAPCELL_ROW_47_1882
*23339 TAP_TAPCELL_ROW_47_1883
*23340 TAP_TAPCELL_ROW_47_1884
*23341 TAP_TAPCELL_ROW_47_1885
*23342 TAP_TAPCELL_ROW_47_1886
*23343 TAP_TAPCELL_ROW_47_1887
*23344 TAP_TAPCELL_ROW_47_1888
*23345 TAP_TAPCELL_ROW_47_1889
*23346 TAP_TAPCELL_ROW_47_1890
*23347 TAP_TAPCELL_ROW_47_1891
*23348 TAP_TAPCELL_ROW_48_1892
*23349 TAP_TAPCELL_ROW_48_1893
*23350 TAP_TAPCELL_ROW_48_1894
*23351 TAP_TAPCELL_ROW_48_1895
*23352 TAP_TAPCELL_ROW_48_1896
*23353 TAP_TAPCELL_ROW_48_1897
*23354 TAP_TAPCELL_ROW_48_1898
*23355 TAP_TAPCELL_ROW_48_1899
*23356 TAP_TAPCELL_ROW_48_1900
*23357 TAP_TAPCELL_ROW_48_1901
*23358 TAP_TAPCELL_ROW_48_1902
*23359 TAP_TAPCELL_ROW_48_1903
*23360 TAP_TAPCELL_ROW_48_1904
*23361 TAP_TAPCELL_ROW_48_1905
*23362 TAP_TAPCELL_ROW_48_1906
*23363 TAP_TAPCELL_ROW_48_1907
*23364 TAP_TAPCELL_ROW_48_1908
*23365 TAP_TAPCELL_ROW_48_1909
*23366 TAP_TAPCELL_ROW_48_1910
*23367 TAP_TAPCELL_ROW_48_1911
*23368 TAP_TAPCELL_ROW_48_1912
*23369 TAP_TAPCELL_ROW_48_1913
*23370 TAP_TAPCELL_ROW_48_1914
*23371 TAP_TAPCELL_ROW_48_1915
*23372 TAP_TAPCELL_ROW_48_1916
*23373 TAP_TAPCELL_ROW_48_1917
*23374 TAP_TAPCELL_ROW_48_1918
*23375 TAP_TAPCELL_ROW_48_1919
*23376 TAP_TAPCELL_ROW_49_1920
*23377 TAP_TAPCELL_ROW_49_1921
*23378 TAP_TAPCELL_ROW_49_1922
*23379 TAP_TAPCELL_ROW_49_1923
*23380 TAP_TAPCELL_ROW_49_1924
*23381 TAP_TAPCELL_ROW_49_1925
*23382 TAP_TAPCELL_ROW_49_1926
*23383 TAP_TAPCELL_ROW_49_1927
*23384 TAP_TAPCELL_ROW_49_1928
*23385 TAP_TAPCELL_ROW_49_1929
*23386 TAP_TAPCELL_ROW_49_1930
*23387 TAP_TAPCELL_ROW_49_1931
*23388 TAP_TAPCELL_ROW_49_1932
*23389 TAP_TAPCELL_ROW_49_1933
*23390 TAP_TAPCELL_ROW_49_1934
*23391 TAP_TAPCELL_ROW_49_1935
*23392 TAP_TAPCELL_ROW_49_1936
*23393 TAP_TAPCELL_ROW_49_1937
*23394 TAP_TAPCELL_ROW_49_1938
*23395 TAP_TAPCELL_ROW_49_1939
*23396 TAP_TAPCELL_ROW_49_1940
*23397 TAP_TAPCELL_ROW_49_1941
*23398 TAP_TAPCELL_ROW_49_1942
*23399 TAP_TAPCELL_ROW_49_1943
*23400 TAP_TAPCELL_ROW_49_1944
*23401 TAP_TAPCELL_ROW_49_1945
*23402 TAP_TAPCELL_ROW_49_1946
*23403 TAP_TAPCELL_ROW_4_682
*23404 TAP_TAPCELL_ROW_4_683
*23405 TAP_TAPCELL_ROW_4_684
*23406 TAP_TAPCELL_ROW_4_685
*23407 TAP_TAPCELL_ROW_4_686
*23408 TAP_TAPCELL_ROW_4_687
*23409 TAP_TAPCELL_ROW_4_688
*23410 TAP_TAPCELL_ROW_4_689
*23411 TAP_TAPCELL_ROW_4_690
*23412 TAP_TAPCELL_ROW_4_691
*23413 TAP_TAPCELL_ROW_4_692
*23414 TAP_TAPCELL_ROW_4_693
*23415 TAP_TAPCELL_ROW_4_694
*23416 TAP_TAPCELL_ROW_4_695
*23417 TAP_TAPCELL_ROW_4_696
*23418 TAP_TAPCELL_ROW_4_697
*23419 TAP_TAPCELL_ROW_4_698
*23420 TAP_TAPCELL_ROW_4_699
*23421 TAP_TAPCELL_ROW_4_700
*23422 TAP_TAPCELL_ROW_4_701
*23423 TAP_TAPCELL_ROW_4_702
*23424 TAP_TAPCELL_ROW_4_703
*23425 TAP_TAPCELL_ROW_4_704
*23426 TAP_TAPCELL_ROW_4_705
*23427 TAP_TAPCELL_ROW_4_706
*23428 TAP_TAPCELL_ROW_4_707
*23429 TAP_TAPCELL_ROW_4_708
*23430 TAP_TAPCELL_ROW_4_709
*23431 TAP_TAPCELL_ROW_50_1947
*23432 TAP_TAPCELL_ROW_50_1948
*23433 TAP_TAPCELL_ROW_50_1949
*23434 TAP_TAPCELL_ROW_50_1950
*23435 TAP_TAPCELL_ROW_50_1951
*23436 TAP_TAPCELL_ROW_50_1952
*23437 TAP_TAPCELL_ROW_50_1953
*23438 TAP_TAPCELL_ROW_50_1954
*23439 TAP_TAPCELL_ROW_50_1955
*23440 TAP_TAPCELL_ROW_50_1956
*23441 TAP_TAPCELL_ROW_50_1957
*23442 TAP_TAPCELL_ROW_50_1958
*23443 TAP_TAPCELL_ROW_50_1959
*23444 TAP_TAPCELL_ROW_50_1960
*23445 TAP_TAPCELL_ROW_50_1961
*23446 TAP_TAPCELL_ROW_50_1962
*23447 TAP_TAPCELL_ROW_50_1963
*23448 TAP_TAPCELL_ROW_50_1964
*23449 TAP_TAPCELL_ROW_50_1965
*23450 TAP_TAPCELL_ROW_50_1966
*23451 TAP_TAPCELL_ROW_50_1967
*23452 TAP_TAPCELL_ROW_50_1968
*23453 TAP_TAPCELL_ROW_50_1969
*23454 TAP_TAPCELL_ROW_50_1970
*23455 TAP_TAPCELL_ROW_50_1971
*23456 TAP_TAPCELL_ROW_50_1972
*23457 TAP_TAPCELL_ROW_50_1973
*23458 TAP_TAPCELL_ROW_50_1974
*23459 TAP_TAPCELL_ROW_51_1975
*23460 TAP_TAPCELL_ROW_51_1976
*23461 TAP_TAPCELL_ROW_51_1977
*23462 TAP_TAPCELL_ROW_51_1978
*23463 TAP_TAPCELL_ROW_51_1979
*23464 TAP_TAPCELL_ROW_51_1980
*23465 TAP_TAPCELL_ROW_51_1981
*23466 TAP_TAPCELL_ROW_51_1982
*23467 TAP_TAPCELL_ROW_51_1983
*23468 TAP_TAPCELL_ROW_51_1984
*23469 TAP_TAPCELL_ROW_51_1985
*23470 TAP_TAPCELL_ROW_51_1986
*23471 TAP_TAPCELL_ROW_51_1987
*23472 TAP_TAPCELL_ROW_51_1988
*23473 TAP_TAPCELL_ROW_51_1989
*23474 TAP_TAPCELL_ROW_51_1990
*23475 TAP_TAPCELL_ROW_51_1991
*23476 TAP_TAPCELL_ROW_51_1992
*23477 TAP_TAPCELL_ROW_51_1993
*23478 TAP_TAPCELL_ROW_51_1994
*23479 TAP_TAPCELL_ROW_51_1995
*23480 TAP_TAPCELL_ROW_51_1996
*23481 TAP_TAPCELL_ROW_51_1997
*23482 TAP_TAPCELL_ROW_51_1998
*23483 TAP_TAPCELL_ROW_51_1999
*23484 TAP_TAPCELL_ROW_51_2000
*23485 TAP_TAPCELL_ROW_51_2001
*23486 TAP_TAPCELL_ROW_52_2002
*23487 TAP_TAPCELL_ROW_52_2003
*23488 TAP_TAPCELL_ROW_52_2004
*23489 TAP_TAPCELL_ROW_52_2005
*23490 TAP_TAPCELL_ROW_52_2006
*23491 TAP_TAPCELL_ROW_52_2007
*23492 TAP_TAPCELL_ROW_52_2008
*23493 TAP_TAPCELL_ROW_52_2009
*23494 TAP_TAPCELL_ROW_52_2010
*23495 TAP_TAPCELL_ROW_52_2011
*23496 TAP_TAPCELL_ROW_52_2012
*23497 TAP_TAPCELL_ROW_52_2013
*23498 TAP_TAPCELL_ROW_52_2014
*23499 TAP_TAPCELL_ROW_52_2015
*23500 TAP_TAPCELL_ROW_52_2016
*23501 TAP_TAPCELL_ROW_52_2017
*23502 TAP_TAPCELL_ROW_52_2018
*23503 TAP_TAPCELL_ROW_52_2019
*23504 TAP_TAPCELL_ROW_52_2020
*23505 TAP_TAPCELL_ROW_52_2021
*23506 TAP_TAPCELL_ROW_52_2022
*23507 TAP_TAPCELL_ROW_52_2023
*23508 TAP_TAPCELL_ROW_52_2024
*23509 TAP_TAPCELL_ROW_52_2025
*23510 TAP_TAPCELL_ROW_52_2026
*23511 TAP_TAPCELL_ROW_52_2027
*23512 TAP_TAPCELL_ROW_52_2028
*23513 TAP_TAPCELL_ROW_52_2029
*23514 TAP_TAPCELL_ROW_53_2030
*23515 TAP_TAPCELL_ROW_53_2031
*23516 TAP_TAPCELL_ROW_53_2032
*23517 TAP_TAPCELL_ROW_53_2033
*23518 TAP_TAPCELL_ROW_53_2034
*23519 TAP_TAPCELL_ROW_53_2035
*23520 TAP_TAPCELL_ROW_53_2036
*23521 TAP_TAPCELL_ROW_53_2037
*23522 TAP_TAPCELL_ROW_53_2038
*23523 TAP_TAPCELL_ROW_53_2039
*23524 TAP_TAPCELL_ROW_53_2040
*23525 TAP_TAPCELL_ROW_53_2041
*23526 TAP_TAPCELL_ROW_53_2042
*23527 TAP_TAPCELL_ROW_53_2043
*23528 TAP_TAPCELL_ROW_53_2044
*23529 TAP_TAPCELL_ROW_53_2045
*23530 TAP_TAPCELL_ROW_53_2046
*23531 TAP_TAPCELL_ROW_53_2047
*23532 TAP_TAPCELL_ROW_53_2048
*23533 TAP_TAPCELL_ROW_53_2049
*23534 TAP_TAPCELL_ROW_53_2050
*23535 TAP_TAPCELL_ROW_53_2051
*23536 TAP_TAPCELL_ROW_53_2052
*23537 TAP_TAPCELL_ROW_53_2053
*23538 TAP_TAPCELL_ROW_53_2054
*23539 TAP_TAPCELL_ROW_53_2055
*23540 TAP_TAPCELL_ROW_53_2056
*23541 TAP_TAPCELL_ROW_54_2057
*23542 TAP_TAPCELL_ROW_54_2058
*23543 TAP_TAPCELL_ROW_54_2059
*23544 TAP_TAPCELL_ROW_54_2060
*23545 TAP_TAPCELL_ROW_54_2061
*23546 TAP_TAPCELL_ROW_54_2062
*23547 TAP_TAPCELL_ROW_54_2063
*23548 TAP_TAPCELL_ROW_54_2064
*23549 TAP_TAPCELL_ROW_54_2065
*23550 TAP_TAPCELL_ROW_54_2066
*23551 TAP_TAPCELL_ROW_54_2067
*23552 TAP_TAPCELL_ROW_54_2068
*23553 TAP_TAPCELL_ROW_54_2069
*23554 TAP_TAPCELL_ROW_54_2070
*23555 TAP_TAPCELL_ROW_54_2071
*23556 TAP_TAPCELL_ROW_54_2072
*23557 TAP_TAPCELL_ROW_54_2073
*23558 TAP_TAPCELL_ROW_54_2074
*23559 TAP_TAPCELL_ROW_54_2075
*23560 TAP_TAPCELL_ROW_54_2076
*23561 TAP_TAPCELL_ROW_54_2077
*23562 TAP_TAPCELL_ROW_54_2078
*23563 TAP_TAPCELL_ROW_54_2079
*23564 TAP_TAPCELL_ROW_54_2080
*23565 TAP_TAPCELL_ROW_54_2081
*23566 TAP_TAPCELL_ROW_54_2082
*23567 TAP_TAPCELL_ROW_54_2083
*23568 TAP_TAPCELL_ROW_54_2084
*23569 TAP_TAPCELL_ROW_55_2085
*23570 TAP_TAPCELL_ROW_55_2086
*23571 TAP_TAPCELL_ROW_55_2087
*23572 TAP_TAPCELL_ROW_55_2088
*23573 TAP_TAPCELL_ROW_55_2089
*23574 TAP_TAPCELL_ROW_55_2090
*23575 TAP_TAPCELL_ROW_55_2091
*23576 TAP_TAPCELL_ROW_55_2092
*23577 TAP_TAPCELL_ROW_55_2093
*23578 TAP_TAPCELL_ROW_55_2094
*23579 TAP_TAPCELL_ROW_55_2095
*23580 TAP_TAPCELL_ROW_55_2096
*23581 TAP_TAPCELL_ROW_55_2097
*23582 TAP_TAPCELL_ROW_55_2098
*23583 TAP_TAPCELL_ROW_55_2099
*23584 TAP_TAPCELL_ROW_55_2100
*23585 TAP_TAPCELL_ROW_55_2101
*23586 TAP_TAPCELL_ROW_55_2102
*23587 TAP_TAPCELL_ROW_55_2103
*23588 TAP_TAPCELL_ROW_55_2104
*23589 TAP_TAPCELL_ROW_55_2105
*23590 TAP_TAPCELL_ROW_55_2106
*23591 TAP_TAPCELL_ROW_55_2107
*23592 TAP_TAPCELL_ROW_55_2108
*23593 TAP_TAPCELL_ROW_55_2109
*23594 TAP_TAPCELL_ROW_55_2110
*23595 TAP_TAPCELL_ROW_55_2111
*23596 TAP_TAPCELL_ROW_56_2112
*23597 TAP_TAPCELL_ROW_56_2113
*23598 TAP_TAPCELL_ROW_56_2114
*23599 TAP_TAPCELL_ROW_56_2115
*23600 TAP_TAPCELL_ROW_56_2116
*23601 TAP_TAPCELL_ROW_56_2117
*23602 TAP_TAPCELL_ROW_56_2118
*23603 TAP_TAPCELL_ROW_56_2119
*23604 TAP_TAPCELL_ROW_56_2120
*23605 TAP_TAPCELL_ROW_56_2121
*23606 TAP_TAPCELL_ROW_56_2122
*23607 TAP_TAPCELL_ROW_56_2123
*23608 TAP_TAPCELL_ROW_56_2124
*23609 TAP_TAPCELL_ROW_56_2125
*23610 TAP_TAPCELL_ROW_56_2126
*23611 TAP_TAPCELL_ROW_56_2127
*23612 TAP_TAPCELL_ROW_56_2128
*23613 TAP_TAPCELL_ROW_56_2129
*23614 TAP_TAPCELL_ROW_56_2130
*23615 TAP_TAPCELL_ROW_56_2131
*23616 TAP_TAPCELL_ROW_56_2132
*23617 TAP_TAPCELL_ROW_56_2133
*23618 TAP_TAPCELL_ROW_56_2134
*23619 TAP_TAPCELL_ROW_56_2135
*23620 TAP_TAPCELL_ROW_56_2136
*23621 TAP_TAPCELL_ROW_56_2137
*23622 TAP_TAPCELL_ROW_56_2138
*23623 TAP_TAPCELL_ROW_56_2139
*23624 TAP_TAPCELL_ROW_57_2140
*23625 TAP_TAPCELL_ROW_57_2141
*23626 TAP_TAPCELL_ROW_57_2142
*23627 TAP_TAPCELL_ROW_57_2143
*23628 TAP_TAPCELL_ROW_57_2144
*23629 TAP_TAPCELL_ROW_57_2145
*23630 TAP_TAPCELL_ROW_57_2146
*23631 TAP_TAPCELL_ROW_57_2147
*23632 TAP_TAPCELL_ROW_57_2148
*23633 TAP_TAPCELL_ROW_57_2149
*23634 TAP_TAPCELL_ROW_57_2150
*23635 TAP_TAPCELL_ROW_57_2151
*23636 TAP_TAPCELL_ROW_57_2152
*23637 TAP_TAPCELL_ROW_57_2153
*23638 TAP_TAPCELL_ROW_57_2154
*23639 TAP_TAPCELL_ROW_57_2155
*23640 TAP_TAPCELL_ROW_57_2156
*23641 TAP_TAPCELL_ROW_57_2157
*23642 TAP_TAPCELL_ROW_57_2158
*23643 TAP_TAPCELL_ROW_57_2159
*23644 TAP_TAPCELL_ROW_57_2160
*23645 TAP_TAPCELL_ROW_57_2161
*23646 TAP_TAPCELL_ROW_57_2162
*23647 TAP_TAPCELL_ROW_57_2163
*23648 TAP_TAPCELL_ROW_57_2164
*23649 TAP_TAPCELL_ROW_57_2165
*23650 TAP_TAPCELL_ROW_57_2166
*23651 TAP_TAPCELL_ROW_58_2167
*23652 TAP_TAPCELL_ROW_58_2168
*23653 TAP_TAPCELL_ROW_58_2169
*23654 TAP_TAPCELL_ROW_58_2170
*23655 TAP_TAPCELL_ROW_58_2171
*23656 TAP_TAPCELL_ROW_58_2172
*23657 TAP_TAPCELL_ROW_58_2173
*23658 TAP_TAPCELL_ROW_58_2174
*23659 TAP_TAPCELL_ROW_58_2175
*23660 TAP_TAPCELL_ROW_58_2176
*23661 TAP_TAPCELL_ROW_58_2177
*23662 TAP_TAPCELL_ROW_58_2178
*23663 TAP_TAPCELL_ROW_58_2179
*23664 TAP_TAPCELL_ROW_58_2180
*23665 TAP_TAPCELL_ROW_58_2181
*23666 TAP_TAPCELL_ROW_58_2182
*23667 TAP_TAPCELL_ROW_58_2183
*23668 TAP_TAPCELL_ROW_58_2184
*23669 TAP_TAPCELL_ROW_58_2185
*23670 TAP_TAPCELL_ROW_58_2186
*23671 TAP_TAPCELL_ROW_58_2187
*23672 TAP_TAPCELL_ROW_58_2188
*23673 TAP_TAPCELL_ROW_58_2189
*23674 TAP_TAPCELL_ROW_58_2190
*23675 TAP_TAPCELL_ROW_58_2191
*23676 TAP_TAPCELL_ROW_58_2192
*23677 TAP_TAPCELL_ROW_58_2193
*23678 TAP_TAPCELL_ROW_58_2194
*23679 TAP_TAPCELL_ROW_59_2195
*23680 TAP_TAPCELL_ROW_59_2196
*23681 TAP_TAPCELL_ROW_59_2197
*23682 TAP_TAPCELL_ROW_59_2198
*23683 TAP_TAPCELL_ROW_59_2199
*23684 TAP_TAPCELL_ROW_59_2200
*23685 TAP_TAPCELL_ROW_59_2201
*23686 TAP_TAPCELL_ROW_59_2202
*23687 TAP_TAPCELL_ROW_59_2203
*23688 TAP_TAPCELL_ROW_59_2204
*23689 TAP_TAPCELL_ROW_59_2205
*23690 TAP_TAPCELL_ROW_59_2206
*23691 TAP_TAPCELL_ROW_59_2207
*23692 TAP_TAPCELL_ROW_59_2208
*23693 TAP_TAPCELL_ROW_59_2209
*23694 TAP_TAPCELL_ROW_59_2210
*23695 TAP_TAPCELL_ROW_59_2211
*23696 TAP_TAPCELL_ROW_59_2212
*23697 TAP_TAPCELL_ROW_59_2213
*23698 TAP_TAPCELL_ROW_59_2214
*23699 TAP_TAPCELL_ROW_59_2215
*23700 TAP_TAPCELL_ROW_59_2216
*23701 TAP_TAPCELL_ROW_59_2217
*23702 TAP_TAPCELL_ROW_59_2218
*23703 TAP_TAPCELL_ROW_59_2219
*23704 TAP_TAPCELL_ROW_59_2220
*23705 TAP_TAPCELL_ROW_59_2221
*23706 TAP_TAPCELL_ROW_5_710
*23707 TAP_TAPCELL_ROW_5_711
*23708 TAP_TAPCELL_ROW_5_712
*23709 TAP_TAPCELL_ROW_5_713
*23710 TAP_TAPCELL_ROW_5_714
*23711 TAP_TAPCELL_ROW_5_715
*23712 TAP_TAPCELL_ROW_5_716
*23713 TAP_TAPCELL_ROW_5_717
*23714 TAP_TAPCELL_ROW_5_718
*23715 TAP_TAPCELL_ROW_5_719
*23716 TAP_TAPCELL_ROW_5_720
*23717 TAP_TAPCELL_ROW_5_721
*23718 TAP_TAPCELL_ROW_5_722
*23719 TAP_TAPCELL_ROW_5_723
*23720 TAP_TAPCELL_ROW_5_724
*23721 TAP_TAPCELL_ROW_5_725
*23722 TAP_TAPCELL_ROW_5_726
*23723 TAP_TAPCELL_ROW_5_727
*23724 TAP_TAPCELL_ROW_5_728
*23725 TAP_TAPCELL_ROW_5_729
*23726 TAP_TAPCELL_ROW_5_730
*23727 TAP_TAPCELL_ROW_5_731
*23728 TAP_TAPCELL_ROW_5_732
*23729 TAP_TAPCELL_ROW_5_733
*23730 TAP_TAPCELL_ROW_5_734
*23731 TAP_TAPCELL_ROW_5_735
*23732 TAP_TAPCELL_ROW_5_736
*23733 TAP_TAPCELL_ROW_60_2222
*23734 TAP_TAPCELL_ROW_60_2223
*23735 TAP_TAPCELL_ROW_60_2224
*23736 TAP_TAPCELL_ROW_60_2225
*23737 TAP_TAPCELL_ROW_60_2226
*23738 TAP_TAPCELL_ROW_60_2227
*23739 TAP_TAPCELL_ROW_60_2228
*23740 TAP_TAPCELL_ROW_60_2229
*23741 TAP_TAPCELL_ROW_60_2230
*23742 TAP_TAPCELL_ROW_60_2231
*23743 TAP_TAPCELL_ROW_60_2232
*23744 TAP_TAPCELL_ROW_60_2233
*23745 TAP_TAPCELL_ROW_60_2234
*23746 TAP_TAPCELL_ROW_60_2235
*23747 TAP_TAPCELL_ROW_60_2236
*23748 TAP_TAPCELL_ROW_60_2237
*23749 TAP_TAPCELL_ROW_60_2238
*23750 TAP_TAPCELL_ROW_60_2239
*23751 TAP_TAPCELL_ROW_60_2240
*23752 TAP_TAPCELL_ROW_60_2241
*23753 TAP_TAPCELL_ROW_60_2242
*23754 TAP_TAPCELL_ROW_60_2243
*23755 TAP_TAPCELL_ROW_60_2244
*23756 TAP_TAPCELL_ROW_60_2245
*23757 TAP_TAPCELL_ROW_60_2246
*23758 TAP_TAPCELL_ROW_60_2247
*23759 TAP_TAPCELL_ROW_60_2248
*23760 TAP_TAPCELL_ROW_60_2249
*23761 TAP_TAPCELL_ROW_61_2250
*23762 TAP_TAPCELL_ROW_61_2251
*23763 TAP_TAPCELL_ROW_61_2252
*23764 TAP_TAPCELL_ROW_61_2253
*23765 TAP_TAPCELL_ROW_61_2254
*23766 TAP_TAPCELL_ROW_61_2255
*23767 TAP_TAPCELL_ROW_61_2256
*23768 TAP_TAPCELL_ROW_61_2257
*23769 TAP_TAPCELL_ROW_61_2258
*23770 TAP_TAPCELL_ROW_61_2259
*23771 TAP_TAPCELL_ROW_61_2260
*23772 TAP_TAPCELL_ROW_61_2261
*23773 TAP_TAPCELL_ROW_61_2262
*23774 TAP_TAPCELL_ROW_61_2263
*23775 TAP_TAPCELL_ROW_61_2264
*23776 TAP_TAPCELL_ROW_61_2265
*23777 TAP_TAPCELL_ROW_61_2266
*23778 TAP_TAPCELL_ROW_61_2267
*23779 TAP_TAPCELL_ROW_61_2268
*23780 TAP_TAPCELL_ROW_61_2269
*23781 TAP_TAPCELL_ROW_61_2270
*23782 TAP_TAPCELL_ROW_61_2271
*23783 TAP_TAPCELL_ROW_61_2272
*23784 TAP_TAPCELL_ROW_61_2273
*23785 TAP_TAPCELL_ROW_61_2274
*23786 TAP_TAPCELL_ROW_61_2275
*23787 TAP_TAPCELL_ROW_61_2276
*23788 TAP_TAPCELL_ROW_62_2277
*23789 TAP_TAPCELL_ROW_62_2278
*23790 TAP_TAPCELL_ROW_62_2279
*23791 TAP_TAPCELL_ROW_62_2280
*23792 TAP_TAPCELL_ROW_62_2281
*23793 TAP_TAPCELL_ROW_62_2282
*23794 TAP_TAPCELL_ROW_62_2283
*23795 TAP_TAPCELL_ROW_62_2284
*23796 TAP_TAPCELL_ROW_62_2285
*23797 TAP_TAPCELL_ROW_62_2286
*23798 TAP_TAPCELL_ROW_62_2287
*23799 TAP_TAPCELL_ROW_62_2288
*23800 TAP_TAPCELL_ROW_62_2289
*23801 TAP_TAPCELL_ROW_62_2290
*23802 TAP_TAPCELL_ROW_62_2291
*23803 TAP_TAPCELL_ROW_62_2292
*23804 TAP_TAPCELL_ROW_62_2293
*23805 TAP_TAPCELL_ROW_62_2294
*23806 TAP_TAPCELL_ROW_62_2295
*23807 TAP_TAPCELL_ROW_62_2296
*23808 TAP_TAPCELL_ROW_62_2297
*23809 TAP_TAPCELL_ROW_62_2298
*23810 TAP_TAPCELL_ROW_62_2299
*23811 TAP_TAPCELL_ROW_62_2300
*23812 TAP_TAPCELL_ROW_62_2301
*23813 TAP_TAPCELL_ROW_62_2302
*23814 TAP_TAPCELL_ROW_62_2303
*23815 TAP_TAPCELL_ROW_62_2304
*23816 TAP_TAPCELL_ROW_63_2305
*23817 TAP_TAPCELL_ROW_63_2306
*23818 TAP_TAPCELL_ROW_63_2307
*23819 TAP_TAPCELL_ROW_63_2308
*23820 TAP_TAPCELL_ROW_63_2309
*23821 TAP_TAPCELL_ROW_63_2310
*23822 TAP_TAPCELL_ROW_63_2311
*23823 TAP_TAPCELL_ROW_63_2312
*23824 TAP_TAPCELL_ROW_63_2313
*23825 TAP_TAPCELL_ROW_63_2314
*23826 TAP_TAPCELL_ROW_63_2315
*23827 TAP_TAPCELL_ROW_63_2316
*23828 TAP_TAPCELL_ROW_63_2317
*23829 TAP_TAPCELL_ROW_63_2318
*23830 TAP_TAPCELL_ROW_63_2319
*23831 TAP_TAPCELL_ROW_63_2320
*23832 TAP_TAPCELL_ROW_63_2321
*23833 TAP_TAPCELL_ROW_63_2322
*23834 TAP_TAPCELL_ROW_63_2323
*23835 TAP_TAPCELL_ROW_63_2324
*23836 TAP_TAPCELL_ROW_63_2325
*23837 TAP_TAPCELL_ROW_63_2326
*23838 TAP_TAPCELL_ROW_63_2327
*23839 TAP_TAPCELL_ROW_63_2328
*23840 TAP_TAPCELL_ROW_63_2329
*23841 TAP_TAPCELL_ROW_63_2330
*23842 TAP_TAPCELL_ROW_63_2331
*23843 TAP_TAPCELL_ROW_64_2332
*23844 TAP_TAPCELL_ROW_64_2333
*23845 TAP_TAPCELL_ROW_64_2334
*23846 TAP_TAPCELL_ROW_64_2335
*23847 TAP_TAPCELL_ROW_64_2336
*23848 TAP_TAPCELL_ROW_64_2337
*23849 TAP_TAPCELL_ROW_64_2338
*23850 TAP_TAPCELL_ROW_64_2339
*23851 TAP_TAPCELL_ROW_64_2340
*23852 TAP_TAPCELL_ROW_64_2341
*23853 TAP_TAPCELL_ROW_64_2342
*23854 TAP_TAPCELL_ROW_64_2343
*23855 TAP_TAPCELL_ROW_64_2344
*23856 TAP_TAPCELL_ROW_64_2345
*23857 TAP_TAPCELL_ROW_64_2346
*23858 TAP_TAPCELL_ROW_64_2347
*23859 TAP_TAPCELL_ROW_64_2348
*23860 TAP_TAPCELL_ROW_64_2349
*23861 TAP_TAPCELL_ROW_64_2350
*23862 TAP_TAPCELL_ROW_64_2351
*23863 TAP_TAPCELL_ROW_64_2352
*23864 TAP_TAPCELL_ROW_64_2353
*23865 TAP_TAPCELL_ROW_64_2354
*23866 TAP_TAPCELL_ROW_64_2355
*23867 TAP_TAPCELL_ROW_64_2356
*23868 TAP_TAPCELL_ROW_64_2357
*23869 TAP_TAPCELL_ROW_64_2358
*23870 TAP_TAPCELL_ROW_64_2359
*23871 TAP_TAPCELL_ROW_65_2360
*23872 TAP_TAPCELL_ROW_65_2361
*23873 TAP_TAPCELL_ROW_65_2362
*23874 TAP_TAPCELL_ROW_65_2363
*23875 TAP_TAPCELL_ROW_65_2364
*23876 TAP_TAPCELL_ROW_65_2365
*23877 TAP_TAPCELL_ROW_65_2366
*23878 TAP_TAPCELL_ROW_65_2367
*23879 TAP_TAPCELL_ROW_65_2368
*23880 TAP_TAPCELL_ROW_65_2369
*23881 TAP_TAPCELL_ROW_65_2370
*23882 TAP_TAPCELL_ROW_65_2371
*23883 TAP_TAPCELL_ROW_65_2372
*23884 TAP_TAPCELL_ROW_65_2373
*23885 TAP_TAPCELL_ROW_65_2374
*23886 TAP_TAPCELL_ROW_65_2375
*23887 TAP_TAPCELL_ROW_65_2376
*23888 TAP_TAPCELL_ROW_65_2377
*23889 TAP_TAPCELL_ROW_65_2378
*23890 TAP_TAPCELL_ROW_65_2379
*23891 TAP_TAPCELL_ROW_65_2380
*23892 TAP_TAPCELL_ROW_65_2381
*23893 TAP_TAPCELL_ROW_65_2382
*23894 TAP_TAPCELL_ROW_65_2383
*23895 TAP_TAPCELL_ROW_65_2384
*23896 TAP_TAPCELL_ROW_65_2385
*23897 TAP_TAPCELL_ROW_65_2386
*23898 TAP_TAPCELL_ROW_66_2387
*23899 TAP_TAPCELL_ROW_66_2388
*23900 TAP_TAPCELL_ROW_66_2389
*23901 TAP_TAPCELL_ROW_66_2390
*23902 TAP_TAPCELL_ROW_66_2391
*23903 TAP_TAPCELL_ROW_66_2392
*23904 TAP_TAPCELL_ROW_66_2393
*23905 TAP_TAPCELL_ROW_66_2394
*23906 TAP_TAPCELL_ROW_66_2395
*23907 TAP_TAPCELL_ROW_66_2396
*23908 TAP_TAPCELL_ROW_66_2397
*23909 TAP_TAPCELL_ROW_66_2398
*23910 TAP_TAPCELL_ROW_66_2399
*23911 TAP_TAPCELL_ROW_66_2400
*23912 TAP_TAPCELL_ROW_66_2401
*23913 TAP_TAPCELL_ROW_66_2402
*23914 TAP_TAPCELL_ROW_66_2403
*23915 TAP_TAPCELL_ROW_66_2404
*23916 TAP_TAPCELL_ROW_66_2405
*23917 TAP_TAPCELL_ROW_66_2406
*23918 TAP_TAPCELL_ROW_66_2407
*23919 TAP_TAPCELL_ROW_66_2408
*23920 TAP_TAPCELL_ROW_66_2409
*23921 TAP_TAPCELL_ROW_66_2410
*23922 TAP_TAPCELL_ROW_66_2411
*23923 TAP_TAPCELL_ROW_66_2412
*23924 TAP_TAPCELL_ROW_66_2413
*23925 TAP_TAPCELL_ROW_66_2414
*23926 TAP_TAPCELL_ROW_67_2415
*23927 TAP_TAPCELL_ROW_67_2416
*23928 TAP_TAPCELL_ROW_67_2417
*23929 TAP_TAPCELL_ROW_67_2418
*23930 TAP_TAPCELL_ROW_67_2419
*23931 TAP_TAPCELL_ROW_67_2420
*23932 TAP_TAPCELL_ROW_67_2421
*23933 TAP_TAPCELL_ROW_67_2422
*23934 TAP_TAPCELL_ROW_67_2423
*23935 TAP_TAPCELL_ROW_67_2424
*23936 TAP_TAPCELL_ROW_67_2425
*23937 TAP_TAPCELL_ROW_67_2426
*23938 TAP_TAPCELL_ROW_67_2427
*23939 TAP_TAPCELL_ROW_67_2428
*23940 TAP_TAPCELL_ROW_67_2429
*23941 TAP_TAPCELL_ROW_67_2430
*23942 TAP_TAPCELL_ROW_67_2431
*23943 TAP_TAPCELL_ROW_67_2432
*23944 TAP_TAPCELL_ROW_67_2433
*23945 TAP_TAPCELL_ROW_67_2434
*23946 TAP_TAPCELL_ROW_67_2435
*23947 TAP_TAPCELL_ROW_67_2436
*23948 TAP_TAPCELL_ROW_67_2437
*23949 TAP_TAPCELL_ROW_67_2438
*23950 TAP_TAPCELL_ROW_67_2439
*23951 TAP_TAPCELL_ROW_67_2440
*23952 TAP_TAPCELL_ROW_67_2441
*23953 TAP_TAPCELL_ROW_68_2442
*23954 TAP_TAPCELL_ROW_68_2443
*23955 TAP_TAPCELL_ROW_68_2444
*23956 TAP_TAPCELL_ROW_68_2445
*23957 TAP_TAPCELL_ROW_68_2446
*23958 TAP_TAPCELL_ROW_68_2447
*23959 TAP_TAPCELL_ROW_68_2448
*23960 TAP_TAPCELL_ROW_68_2449
*23961 TAP_TAPCELL_ROW_68_2450
*23962 TAP_TAPCELL_ROW_68_2451
*23963 TAP_TAPCELL_ROW_68_2452
*23964 TAP_TAPCELL_ROW_68_2453
*23965 TAP_TAPCELL_ROW_68_2454
*23966 TAP_TAPCELL_ROW_68_2455
*23967 TAP_TAPCELL_ROW_68_2456
*23968 TAP_TAPCELL_ROW_68_2457
*23969 TAP_TAPCELL_ROW_68_2458
*23970 TAP_TAPCELL_ROW_68_2459
*23971 TAP_TAPCELL_ROW_68_2460
*23972 TAP_TAPCELL_ROW_68_2461
*23973 TAP_TAPCELL_ROW_68_2462
*23974 TAP_TAPCELL_ROW_68_2463
*23975 TAP_TAPCELL_ROW_68_2464
*23976 TAP_TAPCELL_ROW_68_2465
*23977 TAP_TAPCELL_ROW_68_2466
*23978 TAP_TAPCELL_ROW_68_2467
*23979 TAP_TAPCELL_ROW_68_2468
*23980 TAP_TAPCELL_ROW_68_2469
*23981 TAP_TAPCELL_ROW_69_2470
*23982 TAP_TAPCELL_ROW_69_2471
*23983 TAP_TAPCELL_ROW_69_2472
*23984 TAP_TAPCELL_ROW_69_2473
*23985 TAP_TAPCELL_ROW_69_2474
*23986 TAP_TAPCELL_ROW_69_2475
*23987 TAP_TAPCELL_ROW_69_2476
*23988 TAP_TAPCELL_ROW_69_2477
*23989 TAP_TAPCELL_ROW_69_2478
*23990 TAP_TAPCELL_ROW_69_2479
*23991 TAP_TAPCELL_ROW_69_2480
*23992 TAP_TAPCELL_ROW_69_2481
*23993 TAP_TAPCELL_ROW_69_2482
*23994 TAP_TAPCELL_ROW_69_2483
*23995 TAP_TAPCELL_ROW_69_2484
*23996 TAP_TAPCELL_ROW_69_2485
*23997 TAP_TAPCELL_ROW_69_2486
*23998 TAP_TAPCELL_ROW_69_2487
*23999 TAP_TAPCELL_ROW_69_2488
*24000 TAP_TAPCELL_ROW_69_2489
*24001 TAP_TAPCELL_ROW_69_2490
*24002 TAP_TAPCELL_ROW_69_2491
*24003 TAP_TAPCELL_ROW_69_2492
*24004 TAP_TAPCELL_ROW_69_2493
*24005 TAP_TAPCELL_ROW_69_2494
*24006 TAP_TAPCELL_ROW_69_2495
*24007 TAP_TAPCELL_ROW_69_2496
*24008 TAP_TAPCELL_ROW_6_737
*24009 TAP_TAPCELL_ROW_6_738
*24010 TAP_TAPCELL_ROW_6_739
*24011 TAP_TAPCELL_ROW_6_740
*24012 TAP_TAPCELL_ROW_6_741
*24013 TAP_TAPCELL_ROW_6_742
*24014 TAP_TAPCELL_ROW_6_743
*24015 TAP_TAPCELL_ROW_6_744
*24016 TAP_TAPCELL_ROW_6_745
*24017 TAP_TAPCELL_ROW_6_746
*24018 TAP_TAPCELL_ROW_6_747
*24019 TAP_TAPCELL_ROW_6_748
*24020 TAP_TAPCELL_ROW_6_749
*24021 TAP_TAPCELL_ROW_6_750
*24022 TAP_TAPCELL_ROW_6_751
*24023 TAP_TAPCELL_ROW_6_752
*24024 TAP_TAPCELL_ROW_6_753
*24025 TAP_TAPCELL_ROW_6_754
*24026 TAP_TAPCELL_ROW_6_755
*24027 TAP_TAPCELL_ROW_6_756
*24028 TAP_TAPCELL_ROW_6_757
*24029 TAP_TAPCELL_ROW_6_758
*24030 TAP_TAPCELL_ROW_6_759
*24031 TAP_TAPCELL_ROW_6_760
*24032 TAP_TAPCELL_ROW_6_761
*24033 TAP_TAPCELL_ROW_6_762
*24034 TAP_TAPCELL_ROW_6_763
*24035 TAP_TAPCELL_ROW_6_764
*24036 TAP_TAPCELL_ROW_70_2497
*24037 TAP_TAPCELL_ROW_70_2498
*24038 TAP_TAPCELL_ROW_70_2499
*24039 TAP_TAPCELL_ROW_70_2500
*24040 TAP_TAPCELL_ROW_70_2501
*24041 TAP_TAPCELL_ROW_70_2502
*24042 TAP_TAPCELL_ROW_70_2503
*24043 TAP_TAPCELL_ROW_70_2504
*24044 TAP_TAPCELL_ROW_70_2505
*24045 TAP_TAPCELL_ROW_70_2506
*24046 TAP_TAPCELL_ROW_70_2507
*24047 TAP_TAPCELL_ROW_70_2508
*24048 TAP_TAPCELL_ROW_70_2509
*24049 TAP_TAPCELL_ROW_70_2510
*24050 TAP_TAPCELL_ROW_70_2511
*24051 TAP_TAPCELL_ROW_70_2512
*24052 TAP_TAPCELL_ROW_70_2513
*24053 TAP_TAPCELL_ROW_70_2514
*24054 TAP_TAPCELL_ROW_70_2515
*24055 TAP_TAPCELL_ROW_70_2516
*24056 TAP_TAPCELL_ROW_70_2517
*24057 TAP_TAPCELL_ROW_70_2518
*24058 TAP_TAPCELL_ROW_70_2519
*24059 TAP_TAPCELL_ROW_70_2520
*24060 TAP_TAPCELL_ROW_70_2521
*24061 TAP_TAPCELL_ROW_70_2522
*24062 TAP_TAPCELL_ROW_70_2523
*24063 TAP_TAPCELL_ROW_70_2524
*24064 TAP_TAPCELL_ROW_71_2525
*24065 TAP_TAPCELL_ROW_71_2526
*24066 TAP_TAPCELL_ROW_71_2527
*24067 TAP_TAPCELL_ROW_71_2528
*24068 TAP_TAPCELL_ROW_71_2529
*24069 TAP_TAPCELL_ROW_71_2530
*24070 TAP_TAPCELL_ROW_71_2531
*24071 TAP_TAPCELL_ROW_71_2532
*24072 TAP_TAPCELL_ROW_71_2533
*24073 TAP_TAPCELL_ROW_71_2534
*24074 TAP_TAPCELL_ROW_71_2535
*24075 TAP_TAPCELL_ROW_71_2536
*24076 TAP_TAPCELL_ROW_71_2537
*24077 TAP_TAPCELL_ROW_71_2538
*24078 TAP_TAPCELL_ROW_71_2539
*24079 TAP_TAPCELL_ROW_71_2540
*24080 TAP_TAPCELL_ROW_71_2541
*24081 TAP_TAPCELL_ROW_71_2542
*24082 TAP_TAPCELL_ROW_71_2543
*24083 TAP_TAPCELL_ROW_71_2544
*24084 TAP_TAPCELL_ROW_71_2545
*24085 TAP_TAPCELL_ROW_71_2546
*24086 TAP_TAPCELL_ROW_71_2547
*24087 TAP_TAPCELL_ROW_71_2548
*24088 TAP_TAPCELL_ROW_71_2549
*24089 TAP_TAPCELL_ROW_71_2550
*24090 TAP_TAPCELL_ROW_71_2551
*24091 TAP_TAPCELL_ROW_72_2552
*24092 TAP_TAPCELL_ROW_72_2553
*24093 TAP_TAPCELL_ROW_72_2554
*24094 TAP_TAPCELL_ROW_72_2555
*24095 TAP_TAPCELL_ROW_72_2556
*24096 TAP_TAPCELL_ROW_72_2557
*24097 TAP_TAPCELL_ROW_72_2558
*24098 TAP_TAPCELL_ROW_72_2559
*24099 TAP_TAPCELL_ROW_72_2560
*24100 TAP_TAPCELL_ROW_72_2561
*24101 TAP_TAPCELL_ROW_72_2562
*24102 TAP_TAPCELL_ROW_72_2563
*24103 TAP_TAPCELL_ROW_72_2564
*24104 TAP_TAPCELL_ROW_72_2565
*24105 TAP_TAPCELL_ROW_72_2566
*24106 TAP_TAPCELL_ROW_72_2567
*24107 TAP_TAPCELL_ROW_72_2568
*24108 TAP_TAPCELL_ROW_72_2569
*24109 TAP_TAPCELL_ROW_72_2570
*24110 TAP_TAPCELL_ROW_72_2571
*24111 TAP_TAPCELL_ROW_72_2572
*24112 TAP_TAPCELL_ROW_72_2573
*24113 TAP_TAPCELL_ROW_72_2574
*24114 TAP_TAPCELL_ROW_72_2575
*24115 TAP_TAPCELL_ROW_72_2576
*24116 TAP_TAPCELL_ROW_72_2577
*24117 TAP_TAPCELL_ROW_72_2578
*24118 TAP_TAPCELL_ROW_72_2579
*24119 TAP_TAPCELL_ROW_73_2580
*24120 TAP_TAPCELL_ROW_73_2581
*24121 TAP_TAPCELL_ROW_73_2582
*24122 TAP_TAPCELL_ROW_73_2583
*24123 TAP_TAPCELL_ROW_73_2584
*24124 TAP_TAPCELL_ROW_73_2585
*24125 TAP_TAPCELL_ROW_73_2586
*24126 TAP_TAPCELL_ROW_73_2587
*24127 TAP_TAPCELL_ROW_73_2588
*24128 TAP_TAPCELL_ROW_73_2589
*24129 TAP_TAPCELL_ROW_73_2590
*24130 TAP_TAPCELL_ROW_73_2591
*24131 TAP_TAPCELL_ROW_73_2592
*24132 TAP_TAPCELL_ROW_73_2593
*24133 TAP_TAPCELL_ROW_73_2594
*24134 TAP_TAPCELL_ROW_73_2595
*24135 TAP_TAPCELL_ROW_73_2596
*24136 TAP_TAPCELL_ROW_73_2597
*24137 TAP_TAPCELL_ROW_73_2598
*24138 TAP_TAPCELL_ROW_73_2599
*24139 TAP_TAPCELL_ROW_73_2600
*24140 TAP_TAPCELL_ROW_73_2601
*24141 TAP_TAPCELL_ROW_73_2602
*24142 TAP_TAPCELL_ROW_73_2603
*24143 TAP_TAPCELL_ROW_73_2604
*24144 TAP_TAPCELL_ROW_73_2605
*24145 TAP_TAPCELL_ROW_73_2606
*24146 TAP_TAPCELL_ROW_74_2607
*24147 TAP_TAPCELL_ROW_74_2608
*24148 TAP_TAPCELL_ROW_74_2609
*24149 TAP_TAPCELL_ROW_74_2610
*24150 TAP_TAPCELL_ROW_74_2611
*24151 TAP_TAPCELL_ROW_74_2612
*24152 TAP_TAPCELL_ROW_74_2613
*24153 TAP_TAPCELL_ROW_74_2614
*24154 TAP_TAPCELL_ROW_74_2615
*24155 TAP_TAPCELL_ROW_74_2616
*24156 TAP_TAPCELL_ROW_74_2617
*24157 TAP_TAPCELL_ROW_74_2618
*24158 TAP_TAPCELL_ROW_74_2619
*24159 TAP_TAPCELL_ROW_74_2620
*24160 TAP_TAPCELL_ROW_74_2621
*24161 TAP_TAPCELL_ROW_74_2622
*24162 TAP_TAPCELL_ROW_74_2623
*24163 TAP_TAPCELL_ROW_74_2624
*24164 TAP_TAPCELL_ROW_74_2625
*24165 TAP_TAPCELL_ROW_74_2626
*24166 TAP_TAPCELL_ROW_74_2627
*24167 TAP_TAPCELL_ROW_74_2628
*24168 TAP_TAPCELL_ROW_74_2629
*24169 TAP_TAPCELL_ROW_74_2630
*24170 TAP_TAPCELL_ROW_74_2631
*24171 TAP_TAPCELL_ROW_74_2632
*24172 TAP_TAPCELL_ROW_74_2633
*24173 TAP_TAPCELL_ROW_74_2634
*24174 TAP_TAPCELL_ROW_75_2635
*24175 TAP_TAPCELL_ROW_75_2636
*24176 TAP_TAPCELL_ROW_75_2637
*24177 TAP_TAPCELL_ROW_75_2638
*24178 TAP_TAPCELL_ROW_75_2639
*24179 TAP_TAPCELL_ROW_75_2640
*24180 TAP_TAPCELL_ROW_75_2641
*24181 TAP_TAPCELL_ROW_75_2642
*24182 TAP_TAPCELL_ROW_75_2643
*24183 TAP_TAPCELL_ROW_75_2644
*24184 TAP_TAPCELL_ROW_75_2645
*24185 TAP_TAPCELL_ROW_75_2646
*24186 TAP_TAPCELL_ROW_75_2647
*24187 TAP_TAPCELL_ROW_75_2648
*24188 TAP_TAPCELL_ROW_75_2649
*24189 TAP_TAPCELL_ROW_75_2650
*24190 TAP_TAPCELL_ROW_75_2651
*24191 TAP_TAPCELL_ROW_75_2652
*24192 TAP_TAPCELL_ROW_75_2653
*24193 TAP_TAPCELL_ROW_75_2654
*24194 TAP_TAPCELL_ROW_75_2655
*24195 TAP_TAPCELL_ROW_75_2656
*24196 TAP_TAPCELL_ROW_75_2657
*24197 TAP_TAPCELL_ROW_75_2658
*24198 TAP_TAPCELL_ROW_75_2659
*24199 TAP_TAPCELL_ROW_75_2660
*24200 TAP_TAPCELL_ROW_75_2661
*24201 TAP_TAPCELL_ROW_76_2662
*24202 TAP_TAPCELL_ROW_76_2663
*24203 TAP_TAPCELL_ROW_76_2664
*24204 TAP_TAPCELL_ROW_76_2665
*24205 TAP_TAPCELL_ROW_76_2666
*24206 TAP_TAPCELL_ROW_76_2667
*24207 TAP_TAPCELL_ROW_76_2668
*24208 TAP_TAPCELL_ROW_76_2669
*24209 TAP_TAPCELL_ROW_76_2670
*24210 TAP_TAPCELL_ROW_76_2671
*24211 TAP_TAPCELL_ROW_76_2672
*24212 TAP_TAPCELL_ROW_76_2673
*24213 TAP_TAPCELL_ROW_76_2674
*24214 TAP_TAPCELL_ROW_76_2675
*24215 TAP_TAPCELL_ROW_76_2676
*24216 TAP_TAPCELL_ROW_76_2677
*24217 TAP_TAPCELL_ROW_76_2678
*24218 TAP_TAPCELL_ROW_76_2679
*24219 TAP_TAPCELL_ROW_76_2680
*24220 TAP_TAPCELL_ROW_76_2681
*24221 TAP_TAPCELL_ROW_76_2682
*24222 TAP_TAPCELL_ROW_76_2683
*24223 TAP_TAPCELL_ROW_76_2684
*24224 TAP_TAPCELL_ROW_76_2685
*24225 TAP_TAPCELL_ROW_76_2686
*24226 TAP_TAPCELL_ROW_76_2687
*24227 TAP_TAPCELL_ROW_76_2688
*24228 TAP_TAPCELL_ROW_76_2689
*24229 TAP_TAPCELL_ROW_77_2690
*24230 TAP_TAPCELL_ROW_77_2691
*24231 TAP_TAPCELL_ROW_77_2692
*24232 TAP_TAPCELL_ROW_77_2693
*24233 TAP_TAPCELL_ROW_77_2694
*24234 TAP_TAPCELL_ROW_77_2695
*24235 TAP_TAPCELL_ROW_77_2696
*24236 TAP_TAPCELL_ROW_77_2697
*24237 TAP_TAPCELL_ROW_77_2698
*24238 TAP_TAPCELL_ROW_77_2699
*24239 TAP_TAPCELL_ROW_77_2700
*24240 TAP_TAPCELL_ROW_77_2701
*24241 TAP_TAPCELL_ROW_77_2702
*24242 TAP_TAPCELL_ROW_77_2703
*24243 TAP_TAPCELL_ROW_77_2704
*24244 TAP_TAPCELL_ROW_77_2705
*24245 TAP_TAPCELL_ROW_77_2706
*24246 TAP_TAPCELL_ROW_77_2707
*24247 TAP_TAPCELL_ROW_77_2708
*24248 TAP_TAPCELL_ROW_77_2709
*24249 TAP_TAPCELL_ROW_77_2710
*24250 TAP_TAPCELL_ROW_77_2711
*24251 TAP_TAPCELL_ROW_77_2712
*24252 TAP_TAPCELL_ROW_77_2713
*24253 TAP_TAPCELL_ROW_77_2714
*24254 TAP_TAPCELL_ROW_77_2715
*24255 TAP_TAPCELL_ROW_77_2716
*24256 TAP_TAPCELL_ROW_78_2717
*24257 TAP_TAPCELL_ROW_78_2718
*24258 TAP_TAPCELL_ROW_78_2719
*24259 TAP_TAPCELL_ROW_78_2720
*24260 TAP_TAPCELL_ROW_78_2721
*24261 TAP_TAPCELL_ROW_78_2722
*24262 TAP_TAPCELL_ROW_78_2723
*24263 TAP_TAPCELL_ROW_78_2724
*24264 TAP_TAPCELL_ROW_78_2725
*24265 TAP_TAPCELL_ROW_78_2726
*24266 TAP_TAPCELL_ROW_78_2727
*24267 TAP_TAPCELL_ROW_78_2728
*24268 TAP_TAPCELL_ROW_78_2729
*24269 TAP_TAPCELL_ROW_78_2730
*24270 TAP_TAPCELL_ROW_78_2731
*24271 TAP_TAPCELL_ROW_78_2732
*24272 TAP_TAPCELL_ROW_78_2733
*24273 TAP_TAPCELL_ROW_78_2734
*24274 TAP_TAPCELL_ROW_78_2735
*24275 TAP_TAPCELL_ROW_78_2736
*24276 TAP_TAPCELL_ROW_78_2737
*24277 TAP_TAPCELL_ROW_78_2738
*24278 TAP_TAPCELL_ROW_78_2739
*24279 TAP_TAPCELL_ROW_78_2740
*24280 TAP_TAPCELL_ROW_78_2741
*24281 TAP_TAPCELL_ROW_78_2742
*24282 TAP_TAPCELL_ROW_78_2743
*24283 TAP_TAPCELL_ROW_78_2744
*24284 TAP_TAPCELL_ROW_79_2745
*24285 TAP_TAPCELL_ROW_79_2746
*24286 TAP_TAPCELL_ROW_79_2747
*24287 TAP_TAPCELL_ROW_79_2748
*24288 TAP_TAPCELL_ROW_79_2749
*24289 TAP_TAPCELL_ROW_79_2750
*24290 TAP_TAPCELL_ROW_79_2751
*24291 TAP_TAPCELL_ROW_79_2752
*24292 TAP_TAPCELL_ROW_79_2753
*24293 TAP_TAPCELL_ROW_79_2754
*24294 TAP_TAPCELL_ROW_79_2755
*24295 TAP_TAPCELL_ROW_79_2756
*24296 TAP_TAPCELL_ROW_79_2757
*24297 TAP_TAPCELL_ROW_79_2758
*24298 TAP_TAPCELL_ROW_79_2759
*24299 TAP_TAPCELL_ROW_79_2760
*24300 TAP_TAPCELL_ROW_79_2761
*24301 TAP_TAPCELL_ROW_79_2762
*24302 TAP_TAPCELL_ROW_79_2763
*24303 TAP_TAPCELL_ROW_79_2764
*24304 TAP_TAPCELL_ROW_79_2765
*24305 TAP_TAPCELL_ROW_79_2766
*24306 TAP_TAPCELL_ROW_79_2767
*24307 TAP_TAPCELL_ROW_79_2768
*24308 TAP_TAPCELL_ROW_79_2769
*24309 TAP_TAPCELL_ROW_79_2770
*24310 TAP_TAPCELL_ROW_79_2771
*24311 TAP_TAPCELL_ROW_7_765
*24312 TAP_TAPCELL_ROW_7_766
*24313 TAP_TAPCELL_ROW_7_767
*24314 TAP_TAPCELL_ROW_7_768
*24315 TAP_TAPCELL_ROW_7_769
*24316 TAP_TAPCELL_ROW_7_770
*24317 TAP_TAPCELL_ROW_7_771
*24318 TAP_TAPCELL_ROW_7_772
*24319 TAP_TAPCELL_ROW_7_773
*24320 TAP_TAPCELL_ROW_7_774
*24321 TAP_TAPCELL_ROW_7_775
*24322 TAP_TAPCELL_ROW_7_776
*24323 TAP_TAPCELL_ROW_7_777
*24324 TAP_TAPCELL_ROW_7_778
*24325 TAP_TAPCELL_ROW_7_779
*24326 TAP_TAPCELL_ROW_7_780
*24327 TAP_TAPCELL_ROW_7_781
*24328 TAP_TAPCELL_ROW_7_782
*24329 TAP_TAPCELL_ROW_7_783
*24330 TAP_TAPCELL_ROW_7_784
*24331 TAP_TAPCELL_ROW_7_785
*24332 TAP_TAPCELL_ROW_7_786
*24333 TAP_TAPCELL_ROW_7_787
*24334 TAP_TAPCELL_ROW_7_788
*24335 TAP_TAPCELL_ROW_7_789
*24336 TAP_TAPCELL_ROW_7_790
*24337 TAP_TAPCELL_ROW_7_791
*24338 TAP_TAPCELL_ROW_80_2772
*24339 TAP_TAPCELL_ROW_80_2773
*24340 TAP_TAPCELL_ROW_80_2774
*24341 TAP_TAPCELL_ROW_80_2775
*24342 TAP_TAPCELL_ROW_80_2776
*24343 TAP_TAPCELL_ROW_80_2777
*24344 TAP_TAPCELL_ROW_80_2778
*24345 TAP_TAPCELL_ROW_80_2779
*24346 TAP_TAPCELL_ROW_80_2780
*24347 TAP_TAPCELL_ROW_80_2781
*24348 TAP_TAPCELL_ROW_80_2782
*24349 TAP_TAPCELL_ROW_80_2783
*24350 TAP_TAPCELL_ROW_80_2784
*24351 TAP_TAPCELL_ROW_80_2785
*24352 TAP_TAPCELL_ROW_80_2786
*24353 TAP_TAPCELL_ROW_80_2787
*24354 TAP_TAPCELL_ROW_80_2788
*24355 TAP_TAPCELL_ROW_80_2789
*24356 TAP_TAPCELL_ROW_80_2790
*24357 TAP_TAPCELL_ROW_80_2791
*24358 TAP_TAPCELL_ROW_80_2792
*24359 TAP_TAPCELL_ROW_80_2793
*24360 TAP_TAPCELL_ROW_80_2794
*24361 TAP_TAPCELL_ROW_80_2795
*24362 TAP_TAPCELL_ROW_80_2796
*24363 TAP_TAPCELL_ROW_80_2797
*24364 TAP_TAPCELL_ROW_80_2798
*24365 TAP_TAPCELL_ROW_80_2799
*24366 TAP_TAPCELL_ROW_81_2800
*24367 TAP_TAPCELL_ROW_81_2801
*24368 TAP_TAPCELL_ROW_81_2802
*24369 TAP_TAPCELL_ROW_81_2803
*24370 TAP_TAPCELL_ROW_81_2804
*24371 TAP_TAPCELL_ROW_81_2805
*24372 TAP_TAPCELL_ROW_81_2806
*24373 TAP_TAPCELL_ROW_81_2807
*24374 TAP_TAPCELL_ROW_81_2808
*24375 TAP_TAPCELL_ROW_81_2809
*24376 TAP_TAPCELL_ROW_81_2810
*24377 TAP_TAPCELL_ROW_81_2811
*24378 TAP_TAPCELL_ROW_81_2812
*24379 TAP_TAPCELL_ROW_81_2813
*24380 TAP_TAPCELL_ROW_81_2814
*24381 TAP_TAPCELL_ROW_81_2815
*24382 TAP_TAPCELL_ROW_81_2816
*24383 TAP_TAPCELL_ROW_81_2817
*24384 TAP_TAPCELL_ROW_81_2818
*24385 TAP_TAPCELL_ROW_81_2819
*24386 TAP_TAPCELL_ROW_81_2820
*24387 TAP_TAPCELL_ROW_81_2821
*24388 TAP_TAPCELL_ROW_81_2822
*24389 TAP_TAPCELL_ROW_81_2823
*24390 TAP_TAPCELL_ROW_81_2824
*24391 TAP_TAPCELL_ROW_81_2825
*24392 TAP_TAPCELL_ROW_81_2826
*24393 TAP_TAPCELL_ROW_82_2827
*24394 TAP_TAPCELL_ROW_82_2828
*24395 TAP_TAPCELL_ROW_82_2829
*24396 TAP_TAPCELL_ROW_82_2830
*24397 TAP_TAPCELL_ROW_82_2831
*24398 TAP_TAPCELL_ROW_82_2832
*24399 TAP_TAPCELL_ROW_82_2833
*24400 TAP_TAPCELL_ROW_82_2834
*24401 TAP_TAPCELL_ROW_82_2835
*24402 TAP_TAPCELL_ROW_82_2836
*24403 TAP_TAPCELL_ROW_82_2837
*24404 TAP_TAPCELL_ROW_82_2838
*24405 TAP_TAPCELL_ROW_82_2839
*24406 TAP_TAPCELL_ROW_82_2840
*24407 TAP_TAPCELL_ROW_82_2841
*24408 TAP_TAPCELL_ROW_82_2842
*24409 TAP_TAPCELL_ROW_82_2843
*24410 TAP_TAPCELL_ROW_82_2844
*24411 TAP_TAPCELL_ROW_82_2845
*24412 TAP_TAPCELL_ROW_82_2846
*24413 TAP_TAPCELL_ROW_82_2847
*24414 TAP_TAPCELL_ROW_82_2848
*24415 TAP_TAPCELL_ROW_82_2849
*24416 TAP_TAPCELL_ROW_82_2850
*24417 TAP_TAPCELL_ROW_82_2851
*24418 TAP_TAPCELL_ROW_82_2852
*24419 TAP_TAPCELL_ROW_82_2853
*24420 TAP_TAPCELL_ROW_82_2854
*24421 TAP_TAPCELL_ROW_83_2855
*24422 TAP_TAPCELL_ROW_83_2856
*24423 TAP_TAPCELL_ROW_83_2857
*24424 TAP_TAPCELL_ROW_83_2858
*24425 TAP_TAPCELL_ROW_83_2859
*24426 TAP_TAPCELL_ROW_83_2860
*24427 TAP_TAPCELL_ROW_83_2861
*24428 TAP_TAPCELL_ROW_83_2862
*24429 TAP_TAPCELL_ROW_83_2863
*24430 TAP_TAPCELL_ROW_83_2864
*24431 TAP_TAPCELL_ROW_83_2865
*24432 TAP_TAPCELL_ROW_83_2866
*24433 TAP_TAPCELL_ROW_83_2867
*24434 TAP_TAPCELL_ROW_83_2868
*24435 TAP_TAPCELL_ROW_83_2869
*24436 TAP_TAPCELL_ROW_83_2870
*24437 TAP_TAPCELL_ROW_83_2871
*24438 TAP_TAPCELL_ROW_83_2872
*24439 TAP_TAPCELL_ROW_83_2873
*24440 TAP_TAPCELL_ROW_83_2874
*24441 TAP_TAPCELL_ROW_83_2875
*24442 TAP_TAPCELL_ROW_83_2876
*24443 TAP_TAPCELL_ROW_83_2877
*24444 TAP_TAPCELL_ROW_83_2878
*24445 TAP_TAPCELL_ROW_83_2879
*24446 TAP_TAPCELL_ROW_83_2880
*24447 TAP_TAPCELL_ROW_83_2881
*24448 TAP_TAPCELL_ROW_84_2882
*24449 TAP_TAPCELL_ROW_84_2883
*24450 TAP_TAPCELL_ROW_84_2884
*24451 TAP_TAPCELL_ROW_84_2885
*24452 TAP_TAPCELL_ROW_84_2886
*24453 TAP_TAPCELL_ROW_84_2887
*24454 TAP_TAPCELL_ROW_84_2888
*24455 TAP_TAPCELL_ROW_84_2889
*24456 TAP_TAPCELL_ROW_84_2890
*24457 TAP_TAPCELL_ROW_84_2891
*24458 TAP_TAPCELL_ROW_84_2892
*24459 TAP_TAPCELL_ROW_84_2893
*24460 TAP_TAPCELL_ROW_84_2894
*24461 TAP_TAPCELL_ROW_84_2895
*24462 TAP_TAPCELL_ROW_84_2896
*24463 TAP_TAPCELL_ROW_84_2897
*24464 TAP_TAPCELL_ROW_84_2898
*24465 TAP_TAPCELL_ROW_84_2899
*24466 TAP_TAPCELL_ROW_84_2900
*24467 TAP_TAPCELL_ROW_84_2901
*24468 TAP_TAPCELL_ROW_84_2902
*24469 TAP_TAPCELL_ROW_84_2903
*24470 TAP_TAPCELL_ROW_84_2904
*24471 TAP_TAPCELL_ROW_84_2905
*24472 TAP_TAPCELL_ROW_84_2906
*24473 TAP_TAPCELL_ROW_84_2907
*24474 TAP_TAPCELL_ROW_84_2908
*24475 TAP_TAPCELL_ROW_84_2909
*24476 TAP_TAPCELL_ROW_85_2910
*24477 TAP_TAPCELL_ROW_85_2911
*24478 TAP_TAPCELL_ROW_85_2912
*24479 TAP_TAPCELL_ROW_85_2913
*24480 TAP_TAPCELL_ROW_85_2914
*24481 TAP_TAPCELL_ROW_85_2915
*24482 TAP_TAPCELL_ROW_85_2916
*24483 TAP_TAPCELL_ROW_85_2917
*24484 TAP_TAPCELL_ROW_85_2918
*24485 TAP_TAPCELL_ROW_85_2919
*24486 TAP_TAPCELL_ROW_85_2920
*24487 TAP_TAPCELL_ROW_85_2921
*24488 TAP_TAPCELL_ROW_85_2922
*24489 TAP_TAPCELL_ROW_85_2923
*24490 TAP_TAPCELL_ROW_85_2924
*24491 TAP_TAPCELL_ROW_85_2925
*24492 TAP_TAPCELL_ROW_85_2926
*24493 TAP_TAPCELL_ROW_85_2927
*24494 TAP_TAPCELL_ROW_85_2928
*24495 TAP_TAPCELL_ROW_85_2929
*24496 TAP_TAPCELL_ROW_85_2930
*24497 TAP_TAPCELL_ROW_85_2931
*24498 TAP_TAPCELL_ROW_85_2932
*24499 TAP_TAPCELL_ROW_85_2933
*24500 TAP_TAPCELL_ROW_85_2934
*24501 TAP_TAPCELL_ROW_85_2935
*24502 TAP_TAPCELL_ROW_85_2936
*24503 TAP_TAPCELL_ROW_86_2937
*24504 TAP_TAPCELL_ROW_86_2938
*24505 TAP_TAPCELL_ROW_86_2939
*24506 TAP_TAPCELL_ROW_86_2940
*24507 TAP_TAPCELL_ROW_86_2941
*24508 TAP_TAPCELL_ROW_86_2942
*24509 TAP_TAPCELL_ROW_86_2943
*24510 TAP_TAPCELL_ROW_86_2944
*24511 TAP_TAPCELL_ROW_86_2945
*24512 TAP_TAPCELL_ROW_86_2946
*24513 TAP_TAPCELL_ROW_86_2947
*24514 TAP_TAPCELL_ROW_86_2948
*24515 TAP_TAPCELL_ROW_86_2949
*24516 TAP_TAPCELL_ROW_86_2950
*24517 TAP_TAPCELL_ROW_86_2951
*24518 TAP_TAPCELL_ROW_86_2952
*24519 TAP_TAPCELL_ROW_86_2953
*24520 TAP_TAPCELL_ROW_86_2954
*24521 TAP_TAPCELL_ROW_86_2955
*24522 TAP_TAPCELL_ROW_86_2956
*24523 TAP_TAPCELL_ROW_86_2957
*24524 TAP_TAPCELL_ROW_86_2958
*24525 TAP_TAPCELL_ROW_86_2959
*24526 TAP_TAPCELL_ROW_86_2960
*24527 TAP_TAPCELL_ROW_86_2961
*24528 TAP_TAPCELL_ROW_86_2962
*24529 TAP_TAPCELL_ROW_86_2963
*24530 TAP_TAPCELL_ROW_86_2964
*24531 TAP_TAPCELL_ROW_87_2965
*24532 TAP_TAPCELL_ROW_87_2966
*24533 TAP_TAPCELL_ROW_87_2967
*24534 TAP_TAPCELL_ROW_87_2968
*24535 TAP_TAPCELL_ROW_87_2969
*24536 TAP_TAPCELL_ROW_87_2970
*24537 TAP_TAPCELL_ROW_87_2971
*24538 TAP_TAPCELL_ROW_87_2972
*24539 TAP_TAPCELL_ROW_87_2973
*24540 TAP_TAPCELL_ROW_87_2974
*24541 TAP_TAPCELL_ROW_87_2975
*24542 TAP_TAPCELL_ROW_87_2976
*24543 TAP_TAPCELL_ROW_87_2977
*24544 TAP_TAPCELL_ROW_87_2978
*24545 TAP_TAPCELL_ROW_87_2979
*24546 TAP_TAPCELL_ROW_87_2980
*24547 TAP_TAPCELL_ROW_87_2981
*24548 TAP_TAPCELL_ROW_87_2982
*24549 TAP_TAPCELL_ROW_87_2983
*24550 TAP_TAPCELL_ROW_87_2984
*24551 TAP_TAPCELL_ROW_87_2985
*24552 TAP_TAPCELL_ROW_87_2986
*24553 TAP_TAPCELL_ROW_87_2987
*24554 TAP_TAPCELL_ROW_87_2988
*24555 TAP_TAPCELL_ROW_87_2989
*24556 TAP_TAPCELL_ROW_87_2990
*24557 TAP_TAPCELL_ROW_87_2991
*24558 TAP_TAPCELL_ROW_88_2992
*24559 TAP_TAPCELL_ROW_88_2993
*24560 TAP_TAPCELL_ROW_88_2994
*24561 TAP_TAPCELL_ROW_88_2995
*24562 TAP_TAPCELL_ROW_88_2996
*24563 TAP_TAPCELL_ROW_88_2997
*24564 TAP_TAPCELL_ROW_88_2998
*24565 TAP_TAPCELL_ROW_88_2999
*24566 TAP_TAPCELL_ROW_88_3000
*24567 TAP_TAPCELL_ROW_88_3001
*24568 TAP_TAPCELL_ROW_88_3002
*24569 TAP_TAPCELL_ROW_88_3003
*24570 TAP_TAPCELL_ROW_88_3004
*24571 TAP_TAPCELL_ROW_88_3005
*24572 TAP_TAPCELL_ROW_88_3006
*24573 TAP_TAPCELL_ROW_88_3007
*24574 TAP_TAPCELL_ROW_88_3008
*24575 TAP_TAPCELL_ROW_88_3009
*24576 TAP_TAPCELL_ROW_88_3010
*24577 TAP_TAPCELL_ROW_88_3011
*24578 TAP_TAPCELL_ROW_88_3012
*24579 TAP_TAPCELL_ROW_88_3013
*24580 TAP_TAPCELL_ROW_88_3014
*24581 TAP_TAPCELL_ROW_88_3015
*24582 TAP_TAPCELL_ROW_88_3016
*24583 TAP_TAPCELL_ROW_88_3017
*24584 TAP_TAPCELL_ROW_88_3018
*24585 TAP_TAPCELL_ROW_88_3019
*24586 TAP_TAPCELL_ROW_89_3020
*24587 TAP_TAPCELL_ROW_89_3021
*24588 TAP_TAPCELL_ROW_89_3022
*24589 TAP_TAPCELL_ROW_89_3023
*24590 TAP_TAPCELL_ROW_89_3024
*24591 TAP_TAPCELL_ROW_89_3025
*24592 TAP_TAPCELL_ROW_89_3026
*24593 TAP_TAPCELL_ROW_89_3027
*24594 TAP_TAPCELL_ROW_89_3028
*24595 TAP_TAPCELL_ROW_89_3029
*24596 TAP_TAPCELL_ROW_89_3030
*24597 TAP_TAPCELL_ROW_89_3031
*24598 TAP_TAPCELL_ROW_89_3032
*24599 TAP_TAPCELL_ROW_89_3033
*24600 TAP_TAPCELL_ROW_89_3034
*24601 TAP_TAPCELL_ROW_89_3035
*24602 TAP_TAPCELL_ROW_89_3036
*24603 TAP_TAPCELL_ROW_89_3037
*24604 TAP_TAPCELL_ROW_89_3038
*24605 TAP_TAPCELL_ROW_89_3039
*24606 TAP_TAPCELL_ROW_89_3040
*24607 TAP_TAPCELL_ROW_89_3041
*24608 TAP_TAPCELL_ROW_89_3042
*24609 TAP_TAPCELL_ROW_89_3043
*24610 TAP_TAPCELL_ROW_89_3044
*24611 TAP_TAPCELL_ROW_89_3045
*24612 TAP_TAPCELL_ROW_89_3046
*24613 TAP_TAPCELL_ROW_8_792
*24614 TAP_TAPCELL_ROW_8_793
*24615 TAP_TAPCELL_ROW_8_794
*24616 TAP_TAPCELL_ROW_8_795
*24617 TAP_TAPCELL_ROW_8_796
*24618 TAP_TAPCELL_ROW_8_797
*24619 TAP_TAPCELL_ROW_8_798
*24620 TAP_TAPCELL_ROW_8_799
*24621 TAP_TAPCELL_ROW_8_800
*24622 TAP_TAPCELL_ROW_8_801
*24623 TAP_TAPCELL_ROW_8_802
*24624 TAP_TAPCELL_ROW_8_803
*24625 TAP_TAPCELL_ROW_8_804
*24626 TAP_TAPCELL_ROW_8_805
*24627 TAP_TAPCELL_ROW_8_806
*24628 TAP_TAPCELL_ROW_8_807
*24629 TAP_TAPCELL_ROW_8_808
*24630 TAP_TAPCELL_ROW_8_809
*24631 TAP_TAPCELL_ROW_8_810
*24632 TAP_TAPCELL_ROW_8_811
*24633 TAP_TAPCELL_ROW_8_812
*24634 TAP_TAPCELL_ROW_8_813
*24635 TAP_TAPCELL_ROW_8_814
*24636 TAP_TAPCELL_ROW_8_815
*24637 TAP_TAPCELL_ROW_8_816
*24638 TAP_TAPCELL_ROW_8_817
*24639 TAP_TAPCELL_ROW_8_818
*24640 TAP_TAPCELL_ROW_8_819
*24641 TAP_TAPCELL_ROW_90_3047
*24642 TAP_TAPCELL_ROW_90_3048
*24643 TAP_TAPCELL_ROW_90_3049
*24644 TAP_TAPCELL_ROW_90_3050
*24645 TAP_TAPCELL_ROW_90_3051
*24646 TAP_TAPCELL_ROW_90_3052
*24647 TAP_TAPCELL_ROW_90_3053
*24648 TAP_TAPCELL_ROW_90_3054
*24649 TAP_TAPCELL_ROW_90_3055
*24650 TAP_TAPCELL_ROW_90_3056
*24651 TAP_TAPCELL_ROW_90_3057
*24652 TAP_TAPCELL_ROW_90_3058
*24653 TAP_TAPCELL_ROW_90_3059
*24654 TAP_TAPCELL_ROW_90_3060
*24655 TAP_TAPCELL_ROW_90_3061
*24656 TAP_TAPCELL_ROW_90_3062
*24657 TAP_TAPCELL_ROW_90_3063
*24658 TAP_TAPCELL_ROW_90_3064
*24659 TAP_TAPCELL_ROW_90_3065
*24660 TAP_TAPCELL_ROW_90_3066
*24661 TAP_TAPCELL_ROW_90_3067
*24662 TAP_TAPCELL_ROW_90_3068
*24663 TAP_TAPCELL_ROW_90_3069
*24664 TAP_TAPCELL_ROW_90_3070
*24665 TAP_TAPCELL_ROW_90_3071
*24666 TAP_TAPCELL_ROW_90_3072
*24667 TAP_TAPCELL_ROW_90_3073
*24668 TAP_TAPCELL_ROW_90_3074
*24669 TAP_TAPCELL_ROW_91_3075
*24670 TAP_TAPCELL_ROW_91_3076
*24671 TAP_TAPCELL_ROW_91_3077
*24672 TAP_TAPCELL_ROW_91_3078
*24673 TAP_TAPCELL_ROW_91_3079
*24674 TAP_TAPCELL_ROW_91_3080
*24675 TAP_TAPCELL_ROW_91_3081
*24676 TAP_TAPCELL_ROW_91_3082
*24677 TAP_TAPCELL_ROW_91_3083
*24678 TAP_TAPCELL_ROW_91_3084
*24679 TAP_TAPCELL_ROW_91_3085
*24680 TAP_TAPCELL_ROW_91_3086
*24681 TAP_TAPCELL_ROW_91_3087
*24682 TAP_TAPCELL_ROW_91_3088
*24683 TAP_TAPCELL_ROW_91_3089
*24684 TAP_TAPCELL_ROW_91_3090
*24685 TAP_TAPCELL_ROW_91_3091
*24686 TAP_TAPCELL_ROW_91_3092
*24687 TAP_TAPCELL_ROW_91_3093
*24688 TAP_TAPCELL_ROW_91_3094
*24689 TAP_TAPCELL_ROW_91_3095
*24690 TAP_TAPCELL_ROW_91_3096
*24691 TAP_TAPCELL_ROW_91_3097
*24692 TAP_TAPCELL_ROW_91_3098
*24693 TAP_TAPCELL_ROW_91_3099
*24694 TAP_TAPCELL_ROW_91_3100
*24695 TAP_TAPCELL_ROW_91_3101
*24696 TAP_TAPCELL_ROW_92_3102
*24697 TAP_TAPCELL_ROW_92_3103
*24698 TAP_TAPCELL_ROW_92_3104
*24699 TAP_TAPCELL_ROW_92_3105
*24700 TAP_TAPCELL_ROW_92_3106
*24701 TAP_TAPCELL_ROW_92_3107
*24702 TAP_TAPCELL_ROW_92_3108
*24703 TAP_TAPCELL_ROW_92_3109
*24704 TAP_TAPCELL_ROW_92_3110
*24705 TAP_TAPCELL_ROW_92_3111
*24706 TAP_TAPCELL_ROW_92_3112
*24707 TAP_TAPCELL_ROW_92_3113
*24708 TAP_TAPCELL_ROW_92_3114
*24709 TAP_TAPCELL_ROW_92_3115
*24710 TAP_TAPCELL_ROW_92_3116
*24711 TAP_TAPCELL_ROW_92_3117
*24712 TAP_TAPCELL_ROW_92_3118
*24713 TAP_TAPCELL_ROW_92_3119
*24714 TAP_TAPCELL_ROW_92_3120
*24715 TAP_TAPCELL_ROW_92_3121
*24716 TAP_TAPCELL_ROW_92_3122
*24717 TAP_TAPCELL_ROW_92_3123
*24718 TAP_TAPCELL_ROW_92_3124
*24719 TAP_TAPCELL_ROW_92_3125
*24720 TAP_TAPCELL_ROW_92_3126
*24721 TAP_TAPCELL_ROW_92_3127
*24722 TAP_TAPCELL_ROW_92_3128
*24723 TAP_TAPCELL_ROW_92_3129
*24724 TAP_TAPCELL_ROW_93_3130
*24725 TAP_TAPCELL_ROW_93_3131
*24726 TAP_TAPCELL_ROW_93_3132
*24727 TAP_TAPCELL_ROW_93_3133
*24728 TAP_TAPCELL_ROW_93_3134
*24729 TAP_TAPCELL_ROW_93_3135
*24730 TAP_TAPCELL_ROW_93_3136
*24731 TAP_TAPCELL_ROW_93_3137
*24732 TAP_TAPCELL_ROW_93_3138
*24733 TAP_TAPCELL_ROW_93_3139
*24734 TAP_TAPCELL_ROW_93_3140
*24735 TAP_TAPCELL_ROW_93_3141
*24736 TAP_TAPCELL_ROW_93_3142
*24737 TAP_TAPCELL_ROW_93_3143
*24738 TAP_TAPCELL_ROW_93_3144
*24739 TAP_TAPCELL_ROW_93_3145
*24740 TAP_TAPCELL_ROW_93_3146
*24741 TAP_TAPCELL_ROW_93_3147
*24742 TAP_TAPCELL_ROW_93_3148
*24743 TAP_TAPCELL_ROW_93_3149
*24744 TAP_TAPCELL_ROW_93_3150
*24745 TAP_TAPCELL_ROW_93_3151
*24746 TAP_TAPCELL_ROW_93_3152
*24747 TAP_TAPCELL_ROW_93_3153
*24748 TAP_TAPCELL_ROW_93_3154
*24749 TAP_TAPCELL_ROW_93_3155
*24750 TAP_TAPCELL_ROW_93_3156
*24751 TAP_TAPCELL_ROW_94_3157
*24752 TAP_TAPCELL_ROW_94_3158
*24753 TAP_TAPCELL_ROW_94_3159
*24754 TAP_TAPCELL_ROW_94_3160
*24755 TAP_TAPCELL_ROW_94_3161
*24756 TAP_TAPCELL_ROW_94_3162
*24757 TAP_TAPCELL_ROW_94_3163
*24758 TAP_TAPCELL_ROW_94_3164
*24759 TAP_TAPCELL_ROW_94_3165
*24760 TAP_TAPCELL_ROW_94_3166
*24761 TAP_TAPCELL_ROW_94_3167
*24762 TAP_TAPCELL_ROW_94_3168
*24763 TAP_TAPCELL_ROW_94_3169
*24764 TAP_TAPCELL_ROW_94_3170
*24765 TAP_TAPCELL_ROW_94_3171
*24766 TAP_TAPCELL_ROW_94_3172
*24767 TAP_TAPCELL_ROW_94_3173
*24768 TAP_TAPCELL_ROW_94_3174
*24769 TAP_TAPCELL_ROW_94_3175
*24770 TAP_TAPCELL_ROW_94_3176
*24771 TAP_TAPCELL_ROW_94_3177
*24772 TAP_TAPCELL_ROW_94_3178
*24773 TAP_TAPCELL_ROW_94_3179
*24774 TAP_TAPCELL_ROW_94_3180
*24775 TAP_TAPCELL_ROW_94_3181
*24776 TAP_TAPCELL_ROW_94_3182
*24777 TAP_TAPCELL_ROW_94_3183
*24778 TAP_TAPCELL_ROW_94_3184
*24779 TAP_TAPCELL_ROW_95_3185
*24780 TAP_TAPCELL_ROW_95_3186
*24781 TAP_TAPCELL_ROW_95_3187
*24782 TAP_TAPCELL_ROW_95_3188
*24783 TAP_TAPCELL_ROW_95_3189
*24784 TAP_TAPCELL_ROW_95_3190
*24785 TAP_TAPCELL_ROW_95_3191
*24786 TAP_TAPCELL_ROW_95_3192
*24787 TAP_TAPCELL_ROW_95_3193
*24788 TAP_TAPCELL_ROW_95_3194
*24789 TAP_TAPCELL_ROW_95_3195
*24790 TAP_TAPCELL_ROW_95_3196
*24791 TAP_TAPCELL_ROW_95_3197
*24792 TAP_TAPCELL_ROW_95_3198
*24793 TAP_TAPCELL_ROW_95_3199
*24794 TAP_TAPCELL_ROW_95_3200
*24795 TAP_TAPCELL_ROW_95_3201
*24796 TAP_TAPCELL_ROW_95_3202
*24797 TAP_TAPCELL_ROW_95_3203
*24798 TAP_TAPCELL_ROW_95_3204
*24799 TAP_TAPCELL_ROW_95_3205
*24800 TAP_TAPCELL_ROW_95_3206
*24801 TAP_TAPCELL_ROW_95_3207
*24802 TAP_TAPCELL_ROW_95_3208
*24803 TAP_TAPCELL_ROW_95_3209
*24804 TAP_TAPCELL_ROW_95_3210
*24805 TAP_TAPCELL_ROW_95_3211
*24806 TAP_TAPCELL_ROW_96_3212
*24807 TAP_TAPCELL_ROW_96_3213
*24808 TAP_TAPCELL_ROW_96_3214
*24809 TAP_TAPCELL_ROW_96_3215
*24810 TAP_TAPCELL_ROW_96_3216
*24811 TAP_TAPCELL_ROW_96_3217
*24812 TAP_TAPCELL_ROW_96_3218
*24813 TAP_TAPCELL_ROW_96_3219
*24814 TAP_TAPCELL_ROW_96_3220
*24815 TAP_TAPCELL_ROW_96_3221
*24816 TAP_TAPCELL_ROW_96_3222
*24817 TAP_TAPCELL_ROW_96_3223
*24818 TAP_TAPCELL_ROW_96_3224
*24819 TAP_TAPCELL_ROW_96_3225
*24820 TAP_TAPCELL_ROW_96_3226
*24821 TAP_TAPCELL_ROW_96_3227
*24822 TAP_TAPCELL_ROW_96_3228
*24823 TAP_TAPCELL_ROW_96_3229
*24824 TAP_TAPCELL_ROW_96_3230
*24825 TAP_TAPCELL_ROW_96_3231
*24826 TAP_TAPCELL_ROW_96_3232
*24827 TAP_TAPCELL_ROW_96_3233
*24828 TAP_TAPCELL_ROW_96_3234
*24829 TAP_TAPCELL_ROW_96_3235
*24830 TAP_TAPCELL_ROW_96_3236
*24831 TAP_TAPCELL_ROW_96_3237
*24832 TAP_TAPCELL_ROW_96_3238
*24833 TAP_TAPCELL_ROW_96_3239
*24834 TAP_TAPCELL_ROW_97_3240
*24835 TAP_TAPCELL_ROW_97_3241
*24836 TAP_TAPCELL_ROW_97_3242
*24837 TAP_TAPCELL_ROW_97_3243
*24838 TAP_TAPCELL_ROW_97_3244
*24839 TAP_TAPCELL_ROW_97_3245
*24840 TAP_TAPCELL_ROW_97_3246
*24841 TAP_TAPCELL_ROW_97_3247
*24842 TAP_TAPCELL_ROW_97_3248
*24843 TAP_TAPCELL_ROW_97_3249
*24844 TAP_TAPCELL_ROW_97_3250
*24845 TAP_TAPCELL_ROW_97_3251
*24846 TAP_TAPCELL_ROW_97_3252
*24847 TAP_TAPCELL_ROW_97_3253
*24848 TAP_TAPCELL_ROW_97_3254
*24849 TAP_TAPCELL_ROW_97_3255
*24850 TAP_TAPCELL_ROW_97_3256
*24851 TAP_TAPCELL_ROW_97_3257
*24852 TAP_TAPCELL_ROW_97_3258
*24853 TAP_TAPCELL_ROW_97_3259
*24854 TAP_TAPCELL_ROW_97_3260
*24855 TAP_TAPCELL_ROW_97_3261
*24856 TAP_TAPCELL_ROW_97_3262
*24857 TAP_TAPCELL_ROW_97_3263
*24858 TAP_TAPCELL_ROW_97_3264
*24859 TAP_TAPCELL_ROW_97_3265
*24860 TAP_TAPCELL_ROW_97_3266
*24861 TAP_TAPCELL_ROW_98_3267
*24862 TAP_TAPCELL_ROW_98_3268
*24863 TAP_TAPCELL_ROW_98_3269
*24864 TAP_TAPCELL_ROW_98_3270
*24865 TAP_TAPCELL_ROW_98_3271
*24866 TAP_TAPCELL_ROW_98_3272
*24867 TAP_TAPCELL_ROW_98_3273
*24868 TAP_TAPCELL_ROW_98_3274
*24869 TAP_TAPCELL_ROW_98_3275
*24870 TAP_TAPCELL_ROW_98_3276
*24871 TAP_TAPCELL_ROW_98_3277
*24872 TAP_TAPCELL_ROW_98_3278
*24873 TAP_TAPCELL_ROW_98_3279
*24874 TAP_TAPCELL_ROW_98_3280
*24875 TAP_TAPCELL_ROW_98_3281
*24876 TAP_TAPCELL_ROW_98_3282
*24877 TAP_TAPCELL_ROW_98_3283
*24878 TAP_TAPCELL_ROW_98_3284
*24879 TAP_TAPCELL_ROW_98_3285
*24880 TAP_TAPCELL_ROW_98_3286
*24881 TAP_TAPCELL_ROW_98_3287
*24882 TAP_TAPCELL_ROW_98_3288
*24883 TAP_TAPCELL_ROW_98_3289
*24884 TAP_TAPCELL_ROW_98_3290
*24885 TAP_TAPCELL_ROW_98_3291
*24886 TAP_TAPCELL_ROW_98_3292
*24887 TAP_TAPCELL_ROW_98_3293
*24888 TAP_TAPCELL_ROW_98_3294
*24889 TAP_TAPCELL_ROW_99_3295
*24890 TAP_TAPCELL_ROW_99_3296
*24891 TAP_TAPCELL_ROW_99_3297
*24892 TAP_TAPCELL_ROW_99_3298
*24893 TAP_TAPCELL_ROW_99_3299
*24894 TAP_TAPCELL_ROW_99_3300
*24895 TAP_TAPCELL_ROW_99_3301
*24896 TAP_TAPCELL_ROW_99_3302
*24897 TAP_TAPCELL_ROW_99_3303
*24898 TAP_TAPCELL_ROW_99_3304
*24899 TAP_TAPCELL_ROW_99_3305
*24900 TAP_TAPCELL_ROW_99_3306
*24901 TAP_TAPCELL_ROW_99_3307
*24902 TAP_TAPCELL_ROW_99_3308
*24903 TAP_TAPCELL_ROW_99_3309
*24904 TAP_TAPCELL_ROW_99_3310
*24905 TAP_TAPCELL_ROW_99_3311
*24906 TAP_TAPCELL_ROW_99_3312
*24907 TAP_TAPCELL_ROW_99_3313
*24908 TAP_TAPCELL_ROW_99_3314
*24909 TAP_TAPCELL_ROW_99_3315
*24910 TAP_TAPCELL_ROW_99_3316
*24911 TAP_TAPCELL_ROW_99_3317
*24912 TAP_TAPCELL_ROW_99_3318
*24913 TAP_TAPCELL_ROW_99_3319
*24914 TAP_TAPCELL_ROW_99_3320
*24915 TAP_TAPCELL_ROW_99_3321
*24916 TAP_TAPCELL_ROW_9_820
*24917 TAP_TAPCELL_ROW_9_821
*24918 TAP_TAPCELL_ROW_9_822
*24919 TAP_TAPCELL_ROW_9_823
*24920 TAP_TAPCELL_ROW_9_824
*24921 TAP_TAPCELL_ROW_9_825
*24922 TAP_TAPCELL_ROW_9_826
*24923 TAP_TAPCELL_ROW_9_827
*24924 TAP_TAPCELL_ROW_9_828
*24925 TAP_TAPCELL_ROW_9_829
*24926 TAP_TAPCELL_ROW_9_830
*24927 TAP_TAPCELL_ROW_9_831
*24928 TAP_TAPCELL_ROW_9_832
*24929 TAP_TAPCELL_ROW_9_833
*24930 TAP_TAPCELL_ROW_9_834
*24931 TAP_TAPCELL_ROW_9_835
*24932 TAP_TAPCELL_ROW_9_836
*24933 TAP_TAPCELL_ROW_9_837
*24934 TAP_TAPCELL_ROW_9_838
*24935 TAP_TAPCELL_ROW_9_839
*24936 TAP_TAPCELL_ROW_9_840
*24937 TAP_TAPCELL_ROW_9_841
*24938 TAP_TAPCELL_ROW_9_842
*24939 TAP_TAPCELL_ROW_9_843
*24940 TAP_TAPCELL_ROW_9_844
*24941 TAP_TAPCELL_ROW_9_845
*24942 TAP_TAPCELL_ROW_9_846
*24943 chip_core
*24944 chip_core_100
*24945 chip_core_101
*24946 chip_core_102
*24947 chip_core_103
*24948 chip_core_104
*24949 chip_core_105
*24950 chip_core_106
*24951 chip_core_107
*24952 chip_core_108
*24953 chip_core_109
*24954 chip_core_110
*24955 chip_core_111
*24956 chip_core_112
*24957 chip_core_113
*24958 chip_core_114
*24959 chip_core_115
*24960 chip_core_116
*24961 chip_core_117
*24962 chip_core_118
*24963 chip_core_119
*24964 chip_core_120
*24965 chip_core_121
*24966 chip_core_122
*24967 chip_core_123
*24968 chip_core_124
*24969 chip_core_125
*24970 chip_core_126
*24971 chip_core_127
*24972 chip_core_128
*24973 chip_core_129
*24974 chip_core_130
*24975 chip_core_131
*24976 chip_core_132
*24977 chip_core_133
*24978 chip_core_134
*24979 chip_core_135
*24980 chip_core_136
*24981 chip_core_137
*24982 chip_core_138
*24983 chip_core_139
*24984 chip_core_140
*24985 chip_core_141
*24986 chip_core_142
*24987 chip_core_143
*24988 chip_core_144
*24989 chip_core_145
*24990 chip_core_146
*24991 chip_core_147
*24992 chip_core_148
*24993 chip_core_149
*24994 chip_core_150
*24995 chip_core_151
*24996 chip_core_152
*24997 chip_core_153
*24998 chip_core_154
*24999 chip_core_155
*25000 chip_core_156
*25001 chip_core_157
*25002 chip_core_158
*25003 chip_core_159
*25004 chip_core_160
*25005 chip_core_161
*25006 chip_core_162
*25007 chip_core_163
*25008 chip_core_164
*25009 chip_core_165
*25010 chip_core_166
*25011 chip_core_167
*25012 chip_core_168
*25013 chip_core_169
*25014 chip_core_170
*25015 chip_core_171
*25016 chip_core_172
*25017 chip_core_173
*25018 chip_core_174
*25019 chip_core_175
*25020 chip_core_176
*25021 chip_core_177
*25022 chip_core_178
*25023 chip_core_179
*25024 chip_core_180
*25025 chip_core_181
*25026 chip_core_182
*25027 chip_core_183
*25028 chip_core_184
*25029 chip_core_185
*25030 chip_core_186
*25031 chip_core_187
*25032 chip_core_188
*25033 chip_core_189
*25034 chip_core_190
*25035 chip_core_191
*25036 chip_core_192
*25037 chip_core_193
*25038 chip_core_194
*25039 chip_core_195
*25040 chip_core_196
*25041 chip_core_197
*25042 chip_core_198
*25043 chip_core_199
*25044 chip_core_200
*25045 chip_core_201
*25046 chip_core_202
*25047 chip_core_203
*25048 chip_core_204
*25049 chip_core_205
*25050 chip_core_206
*25051 chip_core_207
*25052 chip_core_208
*25053 chip_core_209
*25054 chip_core_210
*25055 chip_core_211
*25056 chip_core_212
*25057 chip_core_213
*25058 chip_core_214
*25059 chip_core_215
*25060 chip_core_216
*25061 chip_core_217
*25062 chip_core_218
*25063 chip_core_219
*25064 chip_core_220
*25065 chip_core_221
*25066 chip_core_222
*25067 chip_core_223
*25068 chip_core_224
*25069 chip_core_225
*25070 chip_core_226
*25071 chip_core_227
*25072 chip_core_228
*25073 chip_core_229
*25074 chip_core_230
*25075 chip_core_231
*25076 chip_core_232
*25077 chip_core_233
*25078 chip_core_234
*25079 chip_core_235
*25080 chip_core_236
*25081 chip_core_237
*25082 chip_core_238
*25083 chip_core_239
*25084 chip_core_240
*25085 chip_core_241
*25086 chip_core_242
*25087 chip_core_243
*25088 chip_core_244
*25089 chip_core_245
*25090 chip_core_246
*25091 chip_core_247
*25092 chip_core_248
*25093 chip_core_249
*25094 chip_core_250
*25095 chip_core_251
*25096 chip_core_252
*25097 chip_core_253
*25098 chip_core_254
*25099 chip_core_255
*25100 chip_core_256
*25101 chip_core_257
*25102 chip_core_258
*25103 chip_core_259
*25104 chip_core_260
*25105 chip_core_261
*25106 chip_core_262
*25107 chip_core_263
*25108 chip_core_264
*25109 chip_core_265
*25110 chip_core_266
*25111 chip_core_267
*25112 chip_core_268
*25113 chip_core_269
*25114 chip_core_270
*25115 chip_core_271
*25116 chip_core_272
*25117 chip_core_273
*25118 chip_core_274
*25119 chip_core_275
*25120 chip_core_276
*25121 chip_core_277
*25122 chip_core_278
*25123 chip_core_279
*25124 chip_core_280
*25125 chip_core_281
*25126 chip_core_282
*25127 chip_core_283
*25128 chip_core_284
*25129 chip_core_285
*25130 chip_core_286
*25131 chip_core_287
*25132 chip_core_288
*25133 chip_core_289
*25134 chip_core_290
*25135 chip_core_291
*25136 chip_core_292
*25137 chip_core_293
*25138 chip_core_294
*25139 chip_core_295
*25140 chip_core_296
*25141 chip_core_297
*25142 chip_core_298
*25143 chip_core_299
*25144 chip_core_300
*25145 chip_core_301
*25146 chip_core_302
*25147 chip_core_303
*25148 chip_core_304
*25149 chip_core_305
*25150 chip_core_306
*25151 chip_core_307
*25152 chip_core_308
*25153 chip_core_309
*25154 chip_core_31
*25155 chip_core_310
*25156 chip_core_311
*25157 chip_core_32
*25158 chip_core_33
*25159 chip_core_34
*25160 chip_core_35
*25161 chip_core_36
*25162 chip_core_37
*25163 chip_core_38
*25164 chip_core_39
*25165 chip_core_40
*25166 chip_core_41
*25167 chip_core_42
*25168 chip_core_43
*25169 chip_core_44
*25170 chip_core_45
*25171 chip_core_46
*25172 chip_core_47
*25173 chip_core_48
*25174 chip_core_49
*25175 chip_core_50
*25176 chip_core_51
*25177 chip_core_52
*25178 chip_core_53
*25179 chip_core_54
*25180 chip_core_55
*25181 chip_core_56
*25182 chip_core_57
*25183 chip_core_58
*25184 chip_core_59
*25185 chip_core_60
*25186 chip_core_61
*25187 chip_core_62
*25188 chip_core_63
*25189 chip_core_64
*25190 chip_core_65
*25191 chip_core_66
*25192 chip_core_67
*25193 chip_core_68
*25194 chip_core_69
*25195 chip_core_70
*25196 chip_core_71
*25197 chip_core_72
*25198 chip_core_73
*25199 chip_core_74
*25200 chip_core_75
*25201 chip_core_76
*25202 chip_core_77
*25203 chip_core_78
*25204 chip_core_79
*25205 chip_core_80
*25206 chip_core_81
*25207 chip_core_82
*25208 chip_core_83
*25209 chip_core_84
*25210 chip_core_85
*25211 chip_core_86
*25212 chip_core_87
*25213 chip_core_88
*25214 chip_core_89
*25215 chip_core_90
*25216 chip_core_91
*25217 chip_core_92
*25218 chip_core_93
*25219 chip_core_94
*25220 chip_core_95
*25221 chip_core_96
*25222 chip_core_97
*25223 chip_core_98
*25224 chip_core_99
*25225 clkbuf_0_clk
*25226 clkbuf_2_0__f_clk
*25227 clkbuf_2_1__f_clk
*25228 clkbuf_2_2__f_clk
*25229 clkbuf_2_3__f_clk
*25230 clkload0
*25231 clkload1
*25232 clkload2
*25233 fanout19
*25234 fanout25
*25235 hold333
*25236 input1
*25237 input10
*25238 input11
*25239 input12
*25240 input13
*25241 input14
*25242 input15
*25243 input16
*25244 input17
*25245 input18
*25246 input2
*25247 input3
*25248 input4
*25249 input5
*25250 input6
*25251 input7
*25252 input8
*25253 input9
*25254 load_slew20
*25255 load_slew21
*25256 load_slew22
*25257 load_slew23
*25258 load_slew24
*25259 load_slew26
*25260 load_slew27
*25261 load_slew28
*25262 load_slew29
*25263 load_slew30
*25264 u_grouper_soc_top\.gen_gpio_sync\[0\]\.u_gpio_sync/data_o_gf180mcu_fd_sc_mcu7t5v0__dffrnq_1_Q
*25265 u_grouper_soc_top\.gen_gpio_sync\[0\]\.u_gpio_sync/data_r\[0\]_gf180mcu_fd_sc_mcu7t5v0__dffrnq_1_Q
*25266 u_grouper_soc_top\.gen_gpio_sync\[0\]\.u_gpio_sync/data_r\[1\]_gf180mcu_fd_sc_mcu7t5v0__buf_1_Z
*25267 u_grouper_soc_top\.gen_gpio_sync\[0\]\.u_gpio_sync/hold319
*25268 u_grouper_soc_top\.gen_gpio_sync\[10\]\.u_gpio_sync/data_o_gf180mcu_fd_sc_mcu7t5v0__dffrnq_1_Q
*25269 u_grouper_soc_top\.gen_gpio_sync\[10\]\.u_gpio_sync/data_r\[0\]_gf180mcu_fd_sc_mcu7t5v0__dffrnq_1_Q
*25270 u_grouper_soc_top\.gen_gpio_sync\[10\]\.u_gpio_sync/data_r\[1\]_gf180mcu_fd_sc_mcu7t5v0__buf_1_Z
*25271 u_grouper_soc_top\.gen_gpio_sync\[10\]\.u_gpio_sync/hold324
*25272 u_grouper_soc_top\.gen_gpio_sync\[11\]\.u_gpio_sync/data_o_gf180mcu_fd_sc_mcu7t5v0__dffrnq_1_Q
*25273 u_grouper_soc_top\.gen_gpio_sync\[11\]\.u_gpio_sync/data_r\[0\]_gf180mcu_fd_sc_mcu7t5v0__dffrnq_1_Q
*25274 u_grouper_soc_top\.gen_gpio_sync\[11\]\.u_gpio_sync/data_r\[1\]_gf180mcu_fd_sc_mcu7t5v0__buf_1_Z
*25275 u_grouper_soc_top\.gen_gpio_sync\[11\]\.u_gpio_sync/hold330
*25276 u_grouper_soc_top\.gen_gpio_sync\[12\]\.u_gpio_sync/data_o_gf180mcu_fd_sc_mcu7t5v0__dffrnq_1_Q
*25277 u_grouper_soc_top\.gen_gpio_sync\[12\]\.u_gpio_sync/data_r\[0\]_gf180mcu_fd_sc_mcu7t5v0__dffrnq_1_Q
*25278 u_grouper_soc_top\.gen_gpio_sync\[12\]\.u_gpio_sync/data_r\[1\]_gf180mcu_fd_sc_mcu7t5v0__buf_1_Z
*25279 u_grouper_soc_top\.gen_gpio_sync\[12\]\.u_gpio_sync/hold326
*25280 u_grouper_soc_top\.gen_gpio_sync\[13\]\.u_gpio_sync/data_o_gf180mcu_fd_sc_mcu7t5v0__dffrnq_1_Q
*25281 u_grouper_soc_top\.gen_gpio_sync\[13\]\.u_gpio_sync/data_r\[0\]_gf180mcu_fd_sc_mcu7t5v0__dffrnq_1_Q
*25282 u_grouper_soc_top\.gen_gpio_sync\[13\]\.u_gpio_sync/data_r\[1\]_gf180mcu_fd_sc_mcu7t5v0__buf_1_Z
*25283 u_grouper_soc_top\.gen_gpio_sync\[13\]\.u_gpio_sync/hold323
*25284 u_grouper_soc_top\.gen_gpio_sync\[14\]\.u_gpio_sync/data_o_gf180mcu_fd_sc_mcu7t5v0__dffrnq_1_Q
*25285 u_grouper_soc_top\.gen_gpio_sync\[14\]\.u_gpio_sync/data_r\[0\]_gf180mcu_fd_sc_mcu7t5v0__dffrnq_1_Q
*25286 u_grouper_soc_top\.gen_gpio_sync\[14\]\.u_gpio_sync/data_r\[1\]_gf180mcu_fd_sc_mcu7t5v0__buf_1_Z
*25287 u_grouper_soc_top\.gen_gpio_sync\[14\]\.u_gpio_sync/hold320
*25288 u_grouper_soc_top\.gen_gpio_sync\[15\]\.u_gpio_sync/data_o_gf180mcu_fd_sc_mcu7t5v0__dffrnq_1_Q
*25289 u_grouper_soc_top\.gen_gpio_sync\[15\]\.u_gpio_sync/data_r\[0\]_gf180mcu_fd_sc_mcu7t5v0__dffrnq_1_Q
*25290 u_grouper_soc_top\.gen_gpio_sync\[15\]\.u_gpio_sync/data_r\[1\]_gf180mcu_fd_sc_mcu7t5v0__buf_1_Z
*25291 u_grouper_soc_top\.gen_gpio_sync\[15\]\.u_gpio_sync/hold329
*25292 u_grouper_soc_top\.gen_gpio_sync\[1\]\.u_gpio_sync/data_o_gf180mcu_fd_sc_mcu7t5v0__dffrnq_1_Q
*25293 u_grouper_soc_top\.gen_gpio_sync\[1\]\.u_gpio_sync/data_r\[0\]_gf180mcu_fd_sc_mcu7t5v0__dffrnq_1_Q
*25294 u_grouper_soc_top\.gen_gpio_sync\[1\]\.u_gpio_sync/data_r\[1\]_gf180mcu_fd_sc_mcu7t5v0__buf_1_Z
*25295 u_grouper_soc_top\.gen_gpio_sync\[1\]\.u_gpio_sync/hold322
*25296 u_grouper_soc_top\.gen_gpio_sync\[2\]\.u_gpio_sync/data_o_gf180mcu_fd_sc_mcu7t5v0__dffrnq_1_Q
*25297 u_grouper_soc_top\.gen_gpio_sync\[2\]\.u_gpio_sync/data_r\[0\]_gf180mcu_fd_sc_mcu7t5v0__dffrnq_1_Q
*25298 u_grouper_soc_top\.gen_gpio_sync\[2\]\.u_gpio_sync/data_r\[1\]_gf180mcu_fd_sc_mcu7t5v0__buf_1_Z
*25299 u_grouper_soc_top\.gen_gpio_sync\[2\]\.u_gpio_sync/hold316
*25300 u_grouper_soc_top\.gen_gpio_sync\[3\]\.u_gpio_sync/data_o_gf180mcu_fd_sc_mcu7t5v0__dffrnq_1_Q
*25301 u_grouper_soc_top\.gen_gpio_sync\[3\]\.u_gpio_sync/data_r\[0\]_gf180mcu_fd_sc_mcu7t5v0__dffrnq_1_Q
*25302 u_grouper_soc_top\.gen_gpio_sync\[3\]\.u_gpio_sync/data_r\[1\]_gf180mcu_fd_sc_mcu7t5v0__buf_1_Z
*25303 u_grouper_soc_top\.gen_gpio_sync\[3\]\.u_gpio_sync/hold321
*25304 u_grouper_soc_top\.gen_gpio_sync\[4\]\.u_gpio_sync/data_o_gf180mcu_fd_sc_mcu7t5v0__dffrnq_1_Q
*25305 u_grouper_soc_top\.gen_gpio_sync\[4\]\.u_gpio_sync/data_r\[0\]_gf180mcu_fd_sc_mcu7t5v0__dffrnq_1_Q
*25306 u_grouper_soc_top\.gen_gpio_sync\[4\]\.u_gpio_sync/data_r\[1\]_gf180mcu_fd_sc_mcu7t5v0__buf_1_Z
*25307 u_grouper_soc_top\.gen_gpio_sync\[4\]\.u_gpio_sync/hold328
*25308 u_grouper_soc_top\.gen_gpio_sync\[5\]\.u_gpio_sync/data_o_gf180mcu_fd_sc_mcu7t5v0__dffrnq_1_Q
*25309 u_grouper_soc_top\.gen_gpio_sync\[5\]\.u_gpio_sync/data_r\[0\]_gf180mcu_fd_sc_mcu7t5v0__dffrnq_1_Q
*25310 u_grouper_soc_top\.gen_gpio_sync\[5\]\.u_gpio_sync/data_r\[1\]_gf180mcu_fd_sc_mcu7t5v0__buf_1_Z
*25311 u_grouper_soc_top\.gen_gpio_sync\[5\]\.u_gpio_sync/hold315
*25312 u_grouper_soc_top\.gen_gpio_sync\[6\]\.u_gpio_sync/data_o_gf180mcu_fd_sc_mcu7t5v0__dffrnq_1_Q
*25313 u_grouper_soc_top\.gen_gpio_sync\[6\]\.u_gpio_sync/data_r\[0\]_gf180mcu_fd_sc_mcu7t5v0__dffrnq_1_Q
*25314 u_grouper_soc_top\.gen_gpio_sync\[6\]\.u_gpio_sync/data_r\[1\]_gf180mcu_fd_sc_mcu7t5v0__buf_1_Z
*25315 u_grouper_soc_top\.gen_gpio_sync\[6\]\.u_gpio_sync/hold331
*25316 u_grouper_soc_top\.gen_gpio_sync\[7\]\.u_gpio_sync/data_o_gf180mcu_fd_sc_mcu7t5v0__dffrnq_1_Q
*25317 u_grouper_soc_top\.gen_gpio_sync\[7\]\.u_gpio_sync/data_r\[0\]_gf180mcu_fd_sc_mcu7t5v0__dffrnq_1_Q
*25318 u_grouper_soc_top\.gen_gpio_sync\[7\]\.u_gpio_sync/data_r\[1\]_gf180mcu_fd_sc_mcu7t5v0__buf_1_Z
*25319 u_grouper_soc_top\.gen_gpio_sync\[7\]\.u_gpio_sync/hold318
*25320 u_grouper_soc_top\.gen_gpio_sync\[8\]\.u_gpio_sync/data_o_gf180mcu_fd_sc_mcu7t5v0__dffrnq_1_Q
*25321 u_grouper_soc_top\.gen_gpio_sync\[8\]\.u_gpio_sync/data_r\[0\]_gf180mcu_fd_sc_mcu7t5v0__dffrnq_1_Q
*25322 u_grouper_soc_top\.gen_gpio_sync\[8\]\.u_gpio_sync/data_r\[1\]_gf180mcu_fd_sc_mcu7t5v0__buf_1_Z
*25323 u_grouper_soc_top\.gen_gpio_sync\[8\]\.u_gpio_sync/hold327
*25324 u_grouper_soc_top\.gen_gpio_sync\[9\]\.u_gpio_sync/data_o_gf180mcu_fd_sc_mcu7t5v0__dffrnq_1_Q
*25325 u_grouper_soc_top\.gen_gpio_sync\[9\]\.u_gpio_sync/data_r\[0\]_gf180mcu_fd_sc_mcu7t5v0__dffrnq_1_Q
*25326 u_grouper_soc_top\.gen_gpio_sync\[9\]\.u_gpio_sync/data_r\[1\]_gf180mcu_fd_sc_mcu7t5v0__buf_1_Z
*25327 u_grouper_soc_top\.gen_gpio_sync\[9\]\.u_gpio_sync/hold314
*25328 u_grouper_soc_top\.u_grouper_soc_dig_ss\.u_periph_ss\.u_uart\.u_uart\.u_uart_rx\.u_sync/data_o_gf180mcu_fd_sc_mcu7t5v0__dffrnq_1_Q
*25329 u_grouper_soc_top\.u_grouper_soc_dig_ss\.u_periph_ss\.u_uart\.u_uart\.u_uart_rx\.u_sync/data_r\[0\]_gf180mcu_fd_sc_mcu7t5v0__dffrnq_1_Q
*25330 u_grouper_soc_top\.u_grouper_soc_dig_ss\.u_periph_ss\.u_uart\.u_uart\.u_uart_rx\.u_sync/data_r\[1\]_gf180mcu_fd_sc_mcu7t5v0__buf_1_Z
*25331 u_grouper_soc_top\.u_grouper_soc_dig_ss\.u_periph_ss\.u_uart\.u_uart\.u_uart_rx\.u_sync/hold317
*25332 u_grouper_soc_top\.u_grouper_soc_dig_ss\.u_periph_ss\.u_uart\.u_uart\.u_uart_rx\.u_sync/hold332
*25333 u_grouper_soc_top\.u_rst_resync_sync/data_o_gf180mcu_fd_sc_mcu7t5v0__dffrnq_1_Q
*25334 u_grouper_soc_top\.u_rst_resync_sync/data_o_gf180mcu_fd_sc_mcu7t5v0__dffrnq_1_Q_312
*25335 u_grouper_soc_top\.u_rst_resync_sync/data_r\[0\]_gf180mcu_fd_sc_mcu7t5v0__dffrnq_1_Q
*25336 u_grouper_soc_top\.u_rst_resync_sync/data_r\[0\]_gf180mcu_fd_sc_mcu7t5v0__dffrnq_1_Q_313
*25337 u_grouper_soc_top\.u_rst_resync_sync/data_r\[1\]_gf180mcu_fd_sc_mcu7t5v0__buf_1_Z
*25338 u_grouper_soc_top\.u_rst_resync_sync/hold325

*PORTS
bidir_cs[0] O
bidir_cs[10] O
bidir_cs[11] O
bidir_cs[12] O
bidir_cs[13] O
bidir_cs[14] O
bidir_cs[15] O
bidir_cs[16] O
bidir_cs[17] O
bidir_cs[18] O
bidir_cs[19] O
bidir_cs[1] O
bidir_cs[20] O
bidir_cs[21] O
bidir_cs[22] O
bidir_cs[23] O
bidir_cs[24] O
bidir_cs[25] O
bidir_cs[26] O
bidir_cs[27] O
bidir_cs[28] O
bidir_cs[29] O
bidir_cs[2] O
bidir_cs[30] O
bidir_cs[31] O
bidir_cs[32] O
bidir_cs[33] O
bidir_cs[34] O
bidir_cs[35] O
bidir_cs[36] O
bidir_cs[37] O
bidir_cs[38] O
bidir_cs[39] O
bidir_cs[3] O
bidir_cs[4] O
bidir_cs[5] O
bidir_cs[6] O
bidir_cs[7] O
bidir_cs[8] O
bidir_cs[9] O
bidir_ie[0] O
bidir_ie[10] O
bidir_ie[11] O
bidir_ie[12] O
bidir_ie[13] O
bidir_ie[14] O
bidir_ie[15] O
bidir_ie[16] O
bidir_ie[17] O
bidir_ie[18] O
bidir_ie[19] O
bidir_ie[1] O
bidir_ie[20] O
bidir_ie[21] O
bidir_ie[22] O
bidir_ie[23] O
bidir_ie[24] O
bidir_ie[25] O
bidir_ie[26] O
bidir_ie[27] O
bidir_ie[28] O
bidir_ie[29] O
bidir_ie[2] O
bidir_ie[30] O
bidir_ie[31] O
bidir_ie[32] O
bidir_ie[33] O
bidir_ie[34] O
bidir_ie[35] O
bidir_ie[36] O
bidir_ie[37] O
bidir_ie[38] O
bidir_ie[39] O
bidir_ie[3] O
bidir_ie[4] O
bidir_ie[5] O
bidir_ie[6] O
bidir_ie[7] O
bidir_ie[8] O
bidir_ie[9] O
bidir_in[0] I
bidir_in[10] I
bidir_in[11] I
bidir_in[12] I
bidir_in[13] I
bidir_in[14] I
bidir_in[15] I
bidir_in[16] I
bidir_in[17] I
bidir_in[18] I
bidir_in[19] I
bidir_in[1] I
bidir_in[20] I
bidir_in[21] I
bidir_in[22] I
bidir_in[23] I
bidir_in[24] I
bidir_in[25] I
bidir_in[26] I
bidir_in[27] I
bidir_in[28] I
bidir_in[29] I
bidir_in[2] I
bidir_in[30] I
bidir_in[31] I
bidir_in[32] I
bidir_in[33] I
bidir_in[34] I
bidir_in[35] I
bidir_in[36] I
bidir_in[37] I
bidir_in[38] I
bidir_in[39] I
bidir_in[3] I
bidir_in[4] I
bidir_in[5] I
bidir_in[6] I
bidir_in[7] I
bidir_in[8] I
bidir_in[9] I
bidir_oe[0] O
bidir_oe[10] O
bidir_oe[11] O
bidir_oe[12] O
bidir_oe[13] O
bidir_oe[14] O
bidir_oe[15] O
bidir_oe[16] O
bidir_oe[17] O
bidir_oe[18] O
bidir_oe[19] O
bidir_oe[1] O
bidir_oe[20] O
bidir_oe[21] O
bidir_oe[22] O
bidir_oe[23] O
bidir_oe[24] O
bidir_oe[25] O
bidir_oe[26] O
bidir_oe[27] O
bidir_oe[28] O
bidir_oe[29] O
bidir_oe[2] O
bidir_oe[30] O
bidir_oe[31] O
bidir_oe[32] O
bidir_oe[33] O
bidir_oe[34] O
bidir_oe[35] O
bidir_oe[36] O
bidir_oe[37] O
bidir_oe[38] O
bidir_oe[39] O
bidir_oe[3] O
bidir_oe[4] O
bidir_oe[5] O
bidir_oe[6] O
bidir_oe[7] O
bidir_oe[8] O
bidir_oe[9] O
bidir_out[0] O
bidir_out[10] O
bidir_out[11] O
bidir_out[12] O
bidir_out[13] O
bidir_out[14] O
bidir_out[15] O
bidir_out[16] O
bidir_out[17] O
bidir_out[18] O
bidir_out[19] O
bidir_out[1] O
bidir_out[20] O
bidir_out[21] O
bidir_out[22] O
bidir_out[23] O
bidir_out[24] O
bidir_out[25] O
bidir_out[26] O
bidir_out[27] O
bidir_out[28] O
bidir_out[29] O
bidir_out[2] O
bidir_out[30] O
bidir_out[31] O
bidir_out[32] O
bidir_out[33] O
bidir_out[34] O
bidir_out[35] O
bidir_out[36] O
bidir_out[37] O
bidir_out[38] O
bidir_out[39] O
bidir_out[3] O
bidir_out[4] O
bidir_out[5] O
bidir_out[6] O
bidir_out[7] O
bidir_out[8] O
bidir_out[9] O
bidir_pd[0] O
bidir_pd[10] O
bidir_pd[11] O
bidir_pd[12] O
bidir_pd[13] O
bidir_pd[14] O
bidir_pd[15] O
bidir_pd[16] O
bidir_pd[17] O
bidir_pd[18] O
bidir_pd[19] O
bidir_pd[1] O
bidir_pd[20] O
bidir_pd[21] O
bidir_pd[22] O
bidir_pd[23] O
bidir_pd[24] O
bidir_pd[25] O
bidir_pd[26] O
bidir_pd[27] O
bidir_pd[28] O
bidir_pd[29] O
bidir_pd[2] O
bidir_pd[30] O
bidir_pd[31] O
bidir_pd[32] O
bidir_pd[33] O
bidir_pd[34] O
bidir_pd[35] O
bidir_pd[36] O
bidir_pd[37] O
bidir_pd[38] O
bidir_pd[39] O
bidir_pd[3] O
bidir_pd[4] O
bidir_pd[5] O
bidir_pd[6] O
bidir_pd[7] O
bidir_pd[8] O
bidir_pd[9] O
bidir_pu[0] O
bidir_pu[10] O
bidir_pu[11] O
bidir_pu[12] O
bidir_pu[13] O
bidir_pu[14] O
bidir_pu[15] O
bidir_pu[16] O
bidir_pu[17] O
bidir_pu[18] O
bidir_pu[19] O
bidir_pu[1] O
bidir_pu[20] O
bidir_pu[21] O
bidir_pu[22] O
bidir_pu[23] O
bidir_pu[24] O
bidir_pu[25] O
bidir_pu[26] O
bidir_pu[27] O
bidir_pu[28] O
bidir_pu[29] O
bidir_pu[2] O
bidir_pu[30] O
bidir_pu[31] O
bidir_pu[32] O
bidir_pu[33] O
bidir_pu[34] O
bidir_pu[35] O
bidir_pu[36] O
bidir_pu[37] O
bidir_pu[38] O
bidir_pu[39] O
bidir_pu[3] O
bidir_pu[4] O
bidir_pu[5] O
bidir_pu[6] O
bidir_pu[7] O
bidir_pu[8] O
bidir_pu[9] O
bidir_sl[0] O
bidir_sl[10] O
bidir_sl[11] O
bidir_sl[12] O
bidir_sl[13] O
bidir_sl[14] O
bidir_sl[15] O
bidir_sl[16] O
bidir_sl[17] O
bidir_sl[18] O
bidir_sl[19] O
bidir_sl[1] O
bidir_sl[20] O
bidir_sl[21] O
bidir_sl[22] O
bidir_sl[23] O
bidir_sl[24] O
bidir_sl[25] O
bidir_sl[26] O
bidir_sl[27] O
bidir_sl[28] O
bidir_sl[29] O
bidir_sl[2] O
bidir_sl[30] O
bidir_sl[31] O
bidir_sl[32] O
bidir_sl[33] O
bidir_sl[34] O
bidir_sl[35] O
bidir_sl[36] O
bidir_sl[37] O
bidir_sl[38] O
bidir_sl[39] O
bidir_sl[3] O
bidir_sl[4] O
bidir_sl[5] O
bidir_sl[6] O
bidir_sl[7] O
bidir_sl[8] O
bidir_sl[9] O
clk I
input_in I
input_pd O
input_pu O
rst_n I

*D_NET *3 0.00319196
*CONN
*P bidir_cs[0] O
*I *25154:ZN O *D gf180mcu_fd_sc_mcu7t5v0__tiel
*CAP
1 bidir_cs[0] 0.000666023
2 *25154:ZN 0.000666023
3 bidir_cs[0] bidir_cs[6] 0.000565317
4 bidir_cs[0] bidir_ie[21] 7.50749e-05
5 bidir_cs[0] bidir_out[2] 0
6 bidir_cs[0] bidir_pu[2] 0.00121952
7 bidir_cs[0] bidir_sl[8] 0
*RES
1 *25154:ZN bidir_cs[0] 21.6374 
*END

*D_NET *4 0.00189404
*CONN
*P bidir_cs[10] O
*I *25158:ZN O *D gf180mcu_fd_sc_mcu7t5v0__tiel
*CAP
1 bidir_cs[10] 0.000475213
2 *25158:ZN 0.000475213
3 bidir_cs[10] bidir_cs[7] 0.000216881
4 bidir_cs[10] bidir_pd[15] 0.000636469
5 bidir_cs[10] bidir_pd[19] 0
6 bidir_cs[10] bidir_sl[23] 9.02676e-05
*RES
1 *25158:ZN bidir_cs[10] 14.0974 
*END

*D_NET *5 0.00326907
*CONN
*P bidir_cs[11] O
*I *25159:ZN O *D gf180mcu_fd_sc_mcu7t5v0__tiel
*CAP
1 bidir_cs[11] 0.00041152
2 *25159:ZN 0.00041152
3 bidir_cs[11] bidir_ie[28] 0.000956869
4 bidir_cs[11] bidir_pd[26] 9.26705e-05
5 bidir_cs[11] bidir_pd[31] 1.5961e-05
6 bidir_cs[11] bidir_pd[6] 0.000152288
7 bidir_cs[11] bidir_pu[21] 0.00122825
8 bidir_cs[11] bidir_sl[4] 0
*RES
1 *25159:ZN bidir_cs[11] 21.1814 
*END

*D_NET *6 0.00196735
*CONN
*P bidir_cs[12] O
*I *25160:ZN O *D gf180mcu_fd_sc_mcu7t5v0__tiel
*CAP
1 bidir_cs[12] 0.000295747
2 *25160:ZN 0.000295747
3 bidir_cs[12] bidir_ie[15] 3.24312e-05
4 bidir_cs[12] bidir_ie[32] 0.000796314
5 bidir_cs[12] bidir_out[26] 0
6 bidir_cs[12] bidir_out[6] 0.000424937
7 bidir_cs[12] bidir_pu[37] 0.000122171
*RES
1 *25160:ZN bidir_cs[12] 13.7174 
*END

*D_NET *7 0.0018007
*CONN
*P bidir_cs[13] O
*I *25161:ZN O *D gf180mcu_fd_sc_mcu7t5v0__tiel
*CAP
1 bidir_cs[13] 0.000605974
2 *25161:ZN 0.000605974
3 bidir_cs[13] bidir_cs[14] 8.16251e-05
4 bidir_cs[13] bidir_ie[39] 5.02724e-05
5 bidir_cs[13] bidir_out[31] 0.000456858
*RES
1 *25161:ZN bidir_cs[13] 14.0214 
*END

*D_NET *8 0.00168452
*CONN
*P bidir_cs[14] O
*I *25162:ZN O *D gf180mcu_fd_sc_mcu7t5v0__tiel
*CAP
1 bidir_cs[14] 0.000226154
2 *25162:ZN 0.000226154
3 bidir_cs[14] bidir_ie[10] 4.03623e-05
4 bidir_cs[14] bidir_ie[39] 0.000629311
5 bidir_cs[14] bidir_out[31] 0.000450021
6 bidir_cs[14] bidir_pd[32] 3.08902e-05
7 bidir_cs[13] bidir_cs[14] 8.16251e-05
*RES
1 *25162:ZN bidir_cs[14] 13.0334 
*END

*D_NET *9 0.00367206
*CONN
*P bidir_cs[15] O
*I *25163:ZN O *D gf180mcu_fd_sc_mcu7t5v0__tiel
*CAP
1 bidir_cs[15] 0.000858438
2 *25163:ZN 0.000858438
3 bidir_cs[15] bidir_ie[3] 0.000423391
4 bidir_cs[15] bidir_out[3] 0.00068308
5 bidir_cs[15] bidir_pd[38] 7.73532e-05
6 bidir_cs[15] bidir_pu[15] 0.000768381
7 bidir_cs[15] bidir_sl[33] 2.98131e-06
*RES
1 *25163:ZN bidir_cs[15] 13.126 
*END

*D_NET *10 0.00351841
*CONN
*P bidir_cs[16] O
*I *25164:ZN O *D gf180mcu_fd_sc_mcu7t5v0__tiel
*CAP
1 bidir_cs[16] 0.000532183
2 *25164:ZN 0.000532183
3 bidir_cs[16] bidir_cs[28] 0
4 bidir_cs[16] bidir_oe[32] 0.00110311
5 bidir_cs[16] bidir_oe[38] 0.000987566
6 bidir_cs[16] bidir_pd[16] 1.47088e-05
7 bidir_cs[16] bidir_pd[29] 0.000149966
8 bidir_cs[16] bidir_pd[8] 0.00019869
*RES
1 *25164:ZN bidir_cs[16] 11.074 
*END

*D_NET *11 0.00363373
*CONN
*P bidir_cs[17] O
*I *25165:ZN O *D gf180mcu_fd_sc_mcu7t5v0__tiel
*CAP
1 bidir_cs[17] 0.000495224
2 *25165:ZN 0.000495224
3 bidir_cs[17] bidir_oe[0] 0.000149966
4 bidir_cs[17] bidir_oe[22] 0.000279404
5 bidir_cs[17] bidir_pd[33] 0.000579767
6 bidir_cs[17] bidir_pu[6] 0.00148418
7 bidir_cs[17] bidir_sl[31] 0.000149966
*RES
1 *25165:ZN bidir_cs[17] 20.074 
*END

*D_NET *12 0.00162622
*CONN
*P bidir_cs[18] O
*I *25166:ZN O *D gf180mcu_fd_sc_mcu7t5v0__tiel
*CAP
1 bidir_cs[18] 0.000227362
2 *25166:ZN 0.000227362
3 bidir_cs[18] bidir_ie[23] 0.000450021
4 bidir_cs[18] bidir_oe[16] 0.000456858
5 bidir_cs[18] bidir_out[8] 0.00013405
6 bidir_cs[18] bidir_pu[25] 0.000118601
7 bidir_cs[18] bidir_sl[21] 1.1971e-05
*RES
1 *25166:ZN bidir_cs[18] 12.7294 
*END

*D_NET *13 0.00242985
*CONN
*P bidir_cs[19] O
*I *25168:ZN O *D gf180mcu_fd_sc_mcu7t5v0__tiel
*CAP
1 bidir_cs[19] 0.000322878
2 *25168:ZN 0.000322878
3 bidir_cs[19] bidir_ie[37] 0.00112957
4 bidir_cs[19] bidir_oe[33] 0.000480295
5 bidir_cs[19] bidir_sl[18] 0
6 bidir_cs[19] bidir_sl[35] 0.000174229
*RES
1 *25168:ZN bidir_cs[19] 10.466 
*END

*D_NET *14 0.00209106
*CONN
*P bidir_cs[1] O
*I *25167:ZN O *D gf180mcu_fd_sc_mcu7t5v0__tiel
*CAP
1 bidir_cs[1] 0.000305196
2 *25167:ZN 0.000305196
3 bidir_cs[1] bidir_ie[0] 0
4 bidir_cs[1] bidir_ie[1] 0.000511167
5 bidir_cs[1] bidir_out[18] 5.69191e-05
6 bidir_cs[1] bidir_pu[1] 5.02724e-05
7 bidir_cs[1] bidir_pu[5] 0.000862308
*RES
1 *25167:ZN bidir_cs[1] 14.0214 
*END

*D_NET *15 0.0030609
*CONN
*P bidir_cs[20] O
*I *25169:ZN O *D gf180mcu_fd_sc_mcu7t5v0__tiel
*CAP
1 bidir_cs[20] 0.000527891
2 *25169:ZN 0.000527891
3 bidir_cs[20] bidir_cs[39] 3.99394e-05
4 bidir_cs[20] bidir_oe[20] 0
5 bidir_cs[20] bidir_oe[24] 7.09389e-05
6 bidir_cs[20] bidir_oe[26] 0.00109882
7 bidir_cs[20] bidir_oe[27] 0.000440019
8 bidir_cs[20] bidir_pu[10] 0.000355403
9 bidir_cs[20] *341:8 0
*RES
1 *25169:ZN bidir_cs[20] 20.91 
*END

*D_NET *16 0.002956
*CONN
*P bidir_cs[21] O
*I *25170:ZN O *D gf180mcu_fd_sc_mcu7t5v0__tiel
*CAP
1 bidir_cs[21] 0.000430209
2 *25170:ZN 0.000430209
3 bidir_cs[21] bidir_ie[29] 0.000844853
4 bidir_cs[21] bidir_oe[20] 0
5 bidir_cs[21] bidir_oe[39] 2.59409e-05
6 bidir_cs[21] bidir_out[25] 0.000115716
7 bidir_cs[21] bidir_pu[31] 0.00110908
8 bidir_cs[21] *341:8 0
*RES
1 *25170:ZN bidir_cs[21] 20.606 
*END

*D_NET *17 0.00371619
*CONN
*P bidir_cs[22] O
*I *25171:ZN O *D gf180mcu_fd_sc_mcu7t5v0__tiel
*CAP
1 bidir_cs[22] 0.00046781
2 *25171:ZN 0.00046781
3 bidir_cs[22] bidir_oe[3] 0.00144535
4 bidir_cs[22] bidir_out[27] 0.000814097
5 bidir_cs[22] bidir_out[3] 0.0004858
6 bidir_cs[22] bidir_pu[29] 0
7 bidir_cs[22] bidir_sl[28] 3.53241e-05
*RES
1 *25171:ZN bidir_cs[22] 20.758 
*END

*D_NET *18 0.0038719
*CONN
*P bidir_cs[23] O
*I *25172:ZN O *D gf180mcu_fd_sc_mcu7t5v0__tiel
*CAP
1 bidir_cs[23] 0.000631017
2 *25172:ZN 0.000631017
3 bidir_cs[23] bidir_cs[33] 0.000887191
4 bidir_cs[23] bidir_ie[5] 0.000133162
5 bidir_cs[23] bidir_out[5] 0
6 bidir_cs[23] bidir_pd[14] 0.00113156
7 bidir_cs[23] input_pu 0.000457957
*RES
1 *25172:ZN bidir_cs[23] 21.822 
*END

*D_NET *19 0.00307586
*CONN
*P bidir_cs[24] O
*I *25173:ZN O *D gf180mcu_fd_sc_mcu7t5v0__tiel
*CAP
1 bidir_cs[24] 0.00036345
2 *25173:ZN 0.00036345
3 bidir_cs[24] bidir_oe[21] 0
4 bidir_cs[24] bidir_out[21] 0.000124324
5 bidir_cs[24] bidir_pd[5] 0.00124955
6 bidir_cs[24] bidir_pu[7] 0.000975082
*RES
1 *25173:ZN bidir_cs[24] 20.8014 
*END

*D_NET *20 0.00181832
*CONN
*P bidir_cs[25] O
*I *25174:ZN O *D gf180mcu_fd_sc_mcu7t5v0__tiel
*CAP
1 bidir_cs[25] 0.000125184
2 *25174:ZN 0.000125184
3 bidir_cs[25] bidir_cs[29] 0.000862308
4 bidir_cs[25] bidir_ie[23] 0.000670777
5 bidir_cs[25] bidir_oe[16] 3.4869e-05
*RES
1 *25174:ZN bidir_cs[25] 13.4134 
*END

*D_NET *21 0.00335735
*CONN
*P bidir_cs[26] O
*I *25175:ZN O *D gf180mcu_fd_sc_mcu7t5v0__tiel
*CAP
1 bidir_cs[26] 0.000811493
2 *25175:ZN 0.000811493
3 bidir_cs[26] bidir_cs[5] 9.00841e-06
4 bidir_cs[26] bidir_oe[25] 1.2994e-05
5 bidir_cs[26] bidir_out[0] 0
6 bidir_cs[26] bidir_out[22] 0.00162613
7 bidir_cs[26] bidir_sl[22] 8.62306e-05
*RES
1 *25175:ZN bidir_cs[26] 21.7134 
*END

*D_NET *22 0.00280643
*CONN
*P bidir_cs[27] O
*I *25176:ZN O *D gf180mcu_fd_sc_mcu7t5v0__tiel
*CAP
1 bidir_cs[27] 0.0003702
2 *25176:ZN 0.0003702
3 bidir_cs[27] bidir_cs[4] 0.000578974
4 bidir_cs[27] bidir_ie[19] 0.000130772
5 bidir_cs[27] bidir_ie[33] 0.000324145
6 bidir_cs[27] bidir_out[15] 0.000952293
7 bidir_cs[27] bidir_sl[16] 7.98484e-05
*RES
1 *25176:ZN bidir_cs[27] 11.4974 
*END

*D_NET *23 0.00240067
*CONN
*P bidir_cs[28] O
*I *25177:ZN O *D gf180mcu_fd_sc_mcu7t5v0__tiel
*CAP
1 bidir_cs[28] 0.000717795
2 *25177:ZN 0.000717795
3 bidir_cs[28] bidir_oe[32] 0.000330145
4 bidir_cs[28] bidir_oe[38] 0.000163815
5 bidir_cs[28] bidir_pd[16] 0.000330145
6 bidir_cs[28] bidir_pd[29] 0.00014097
7 bidir_cs[16] bidir_cs[28] 0
*RES
1 *25177:ZN bidir_cs[28] 20.378 
*END

*D_NET *24 0.00209106
*CONN
*P bidir_cs[29] O
*I *25179:ZN O *D gf180mcu_fd_sc_mcu7t5v0__tiel
*CAP
1 bidir_cs[29] 0.000305196
2 *25179:ZN 0.000305196
3 bidir_cs[29] bidir_cs[8] 5.69191e-05
4 bidir_cs[29] bidir_ie[0] 5.02724e-05
5 bidir_cs[29] bidir_oe[16] 0
6 bidir_cs[29] bidir_pu[25] 0.000511167
7 bidir_cs[25] bidir_cs[29] 0.000862308
*RES
1 *25179:ZN bidir_cs[29] 14.0214 
*END

*D_NET *25 0.00306374
*CONN
*P bidir_cs[2] O
*I *25178:ZN O *D gf180mcu_fd_sc_mcu7t5v0__tiel
*CAP
1 bidir_cs[2] 0.000349152
2 *25178:ZN 0.000349152
3 bidir_cs[2] bidir_cs[35] 0.000934628
4 bidir_cs[2] bidir_oe[10] 0.00122102
5 bidir_cs[2] bidir_pd[26] 0.000180382
6 bidir_cs[2] bidir_pd[6] 9.56442e-06
7 bidir_cs[2] bidir_sl[37] 1.98468e-05
*RES
1 *25178:ZN bidir_cs[2] 11.7254 
*END

*D_NET *26 0.00158061
*CONN
*P bidir_cs[30] O
*I *25180:ZN O *D gf180mcu_fd_sc_mcu7t5v0__tiel
*CAP
1 bidir_cs[30] 0.000250876
2 *25180:ZN 0.000250876
3 bidir_cs[30] bidir_ie[1] 4.72007e-05
4 bidir_cs[30] bidir_oe[12] 0.000450021
5 bidir_cs[30] bidir_oe[2] 0.000118601
6 bidir_cs[30] bidir_out[18] 6.18275e-06
7 bidir_cs[30] bidir_pu[1] 0.000456858
*RES
1 *25180:ZN bidir_cs[30] 12.7294 
*END

*D_NET *27 0.00279146
*CONN
*P bidir_cs[31] O
*I *25181:ZN O *D gf180mcu_fd_sc_mcu7t5v0__tiel
*CAP
1 bidir_cs[31] 0.000964333
2 *25181:ZN 0.000964333
3 bidir_cs[31] bidir_sl[18] 0.000862791
*RES
1 *25181:ZN bidir_cs[31] 19.998 
*END

*D_NET *28 0.00229729
*CONN
*P bidir_cs[32] O
*I *25182:ZN O *D gf180mcu_fd_sc_mcu7t5v0__tiel
*CAP
1 bidir_cs[32] 0.000510266
2 *25182:ZN 0.000510266
3 bidir_cs[32] bidir_cs[36] 5.02724e-05
4 bidir_cs[32] bidir_cs[3] 9.77316e-05
5 bidir_cs[32] bidir_ie[11] 4.25807e-05
6 bidir_cs[32] bidir_out[23] 0
7 bidir_cs[32] bidir_pd[39] 0.000456858
8 bidir_cs[32] bidir_pu[19] 0.00062932
*RES
1 *25182:ZN bidir_cs[32] 15.2374 
*END

*D_NET *29 0.00437781
*CONN
*P bidir_cs[33] O
*I *25183:ZN O *D gf180mcu_fd_sc_mcu7t5v0__tiel
*CAP
1 bidir_cs[33] 0.000589134
2 *25183:ZN 0.000589134
3 bidir_cs[33] bidir_oe[18] 0.00183635
4 bidir_cs[33] bidir_sl[12] 0.000475995
5 bidir_cs[23] bidir_cs[33] 0.000887191
*RES
1 *25183:ZN bidir_cs[33] 12.974 
*END

*D_NET *30 0.00441358
*CONN
*P bidir_cs[34] O
*I *25184:ZN O *D gf180mcu_fd_sc_mcu7t5v0__tiel
*CAP
1 bidir_cs[34] 0.000450951
2 *25184:ZN 0.000450951
3 bidir_cs[34] bidir_oe[30] 0.000117644
4 bidir_cs[34] bidir_oe[7] 3.17618e-05
5 bidir_cs[34] bidir_out[1] 0.000324249
6 bidir_cs[34] bidir_pd[0] 0
7 bidir_cs[34] bidir_pd[3] 0
8 bidir_cs[34] bidir_pd[4] 0
9 bidir_cs[34] bidir_pu[14] 0
10 bidir_cs[34] bidir_pu[38] 0.00100358
11 bidir_cs[34] bidir_sl[30] 0.00197842
12 bidir_cs[34] bidir_sl[3] 5.60139e-05
*RES
1 *25184:ZN bidir_cs[34] 21.5614 
*END

*D_NET *31 0.00364926
*CONN
*P bidir_cs[35] O
*I *25185:ZN O *D gf180mcu_fd_sc_mcu7t5v0__tiel
*CAP
1 bidir_cs[35] 0.000307886
2 *25185:ZN 0.000307886
3 bidir_cs[35] bidir_ie[18] 0.00013405
4 bidir_cs[35] bidir_ie[28] 0.000437709
5 bidir_cs[35] bidir_ie[6] 0.000161051
6 bidir_cs[35] bidir_pd[26] 0.000934628
7 bidir_cs[35] bidir_pd[37] 0.000431423
8 bidir_cs[2] bidir_cs[35] 0.000934628
*RES
1 *25185:ZN bidir_cs[35] 20.7254 
*END

*D_NET *32 0.00209106
*CONN
*P bidir_cs[36] O
*I *25186:ZN O *D gf180mcu_fd_sc_mcu7t5v0__tiel
*CAP
1 bidir_cs[36] 0.000305196
2 *25186:ZN 0.000305196
3 bidir_cs[36] bidir_oe[2] 0.000511167
4 bidir_cs[36] bidir_pu[19] 5.69191e-05
5 bidir_cs[36] bidir_pu[1] 0
6 bidir_cs[36] bidir_pu[36] 0.000862308
7 bidir_cs[32] bidir_cs[36] 5.02724e-05
*RES
1 *25186:ZN bidir_cs[36] 14.0214 
*END

*D_NET *33 0.00360889
*CONN
*P bidir_cs[37] O
*I *25187:ZN O *D gf180mcu_fd_sc_mcu7t5v0__tiel
*CAP
1 bidir_cs[37] 0.000328381
2 *25187:ZN 0.000328381
3 bidir_cs[37] bidir_oe[11] 0.000834607
4 bidir_cs[37] bidir_oe[34] 0.000402666
5 bidir_cs[37] bidir_pd[33] 0.000928159
6 bidir_cs[37] bidir_pu[18] 0
7 bidir_cs[37] *341:8 0.000786694
*RES
1 *25187:ZN bidir_cs[37] 19.998 
*END

*D_NET *34 0.00334526
*CONN
*P bidir_cs[38] O
*I *25188:ZN O *D gf180mcu_fd_sc_mcu7t5v0__tiel
*CAP
1 bidir_cs[38] 0.00041679
2 *25188:ZN 0.00041679
3 bidir_cs[38] bidir_oe[13] 0.000247747
4 bidir_cs[38] bidir_oe[4] 0.00060443
5 bidir_cs[38] bidir_pd[28] 0.000240056
6 bidir_cs[38] bidir_pd[9] 0.000734637
7 bidir_cs[38] bidir_pu[24] 6.91944e-05
8 bidir_cs[38] bidir_pu[27] 1.11891e-05
9 bidir_cs[38] bidir_sl[7] 0.00060443
*RES
1 *25188:ZN bidir_cs[38] 20.53 
*END

*D_NET *35 0.00333747
*CONN
*P bidir_cs[39] O
*I *24943:ZN O *D gf180mcu_fd_sc_mcu7t5v0__tiel
*CAP
1 bidir_cs[39] 0.000525306
2 *24943:ZN 0.000525306
3 bidir_cs[39] bidir_ie[20] 0.000112121
4 bidir_cs[39] bidir_oe[26] 1.47088e-05
5 bidir_cs[39] bidir_oe[27] 0.000440019
6 bidir_cs[39] bidir_pd[36] 0.000470049
7 bidir_cs[39] bidir_pu[10] 0.00121002
8 bidir_cs[20] bidir_cs[39] 3.99394e-05
*RES
1 *24943:ZN bidir_cs[39] 11.454 
*END

*D_NET *36 0.00177118
*CONN
*P bidir_cs[3] O
*I *25189:ZN O *D gf180mcu_fd_sc_mcu7t5v0__tiel
*CAP
1 bidir_cs[3] 0.000238267
2 *25189:ZN 0.000238267
3 bidir_cs[3] bidir_ie[11] 0.000670777
4 bidir_cs[3] bidir_pd[39] 0.000450021
5 bidir_cs[3] bidir_pu[19] 3.08902e-05
6 bidir_cs[3] bidir_pu[26] 4.52231e-05
7 bidir_cs[32] bidir_cs[3] 9.77316e-05
*RES
1 *25189:ZN bidir_cs[3] 13.2614 
*END

*D_NET *37 0.00360973
*CONN
*P bidir_cs[4] O
*I *25190:ZN O *D gf180mcu_fd_sc_mcu7t5v0__tiel
*CAP
1 bidir_cs[4] 0.000352372
2 *25190:ZN 0.000352372
3 bidir_cs[4] bidir_ie[24] 0.000873525
4 bidir_cs[4] bidir_ie[33] 0.000578974
5 bidir_cs[4] bidir_oe[14] 0.000873517
6 bidir_cs[27] bidir_cs[4] 0.000578974
*RES
1 *25190:ZN bidir_cs[4] 20.1174 
*END

*D_NET *38 0.00388071
*CONN
*P bidir_cs[5] O
*I *25191:ZN O *D gf180mcu_fd_sc_mcu7t5v0__tiel
*CAP
1 bidir_cs[5] 0.000587383
2 *25191:ZN 0.000587383
3 bidir_cs[5] bidir_oe[25] 0
4 bidir_cs[5] bidir_oe[7] 1.12495e-05
5 bidir_cs[5] bidir_out[0] 0.000989614
6 bidir_cs[5] bidir_out[22] 4.55526e-05
7 bidir_cs[5] bidir_pd[1] 2.41598e-05
8 bidir_cs[5] bidir_pu[33] 5.79329e-05
9 bidir_cs[5] bidir_sl[22] 0.00156843
10 bidir_cs[26] bidir_cs[5] 9.00841e-06
*RES
1 *25191:ZN bidir_cs[5] 22.2454 
*END

*D_NET *39 0.003281
*CONN
*P bidir_cs[6] O
*I *25192:ZN O *D gf180mcu_fd_sc_mcu7t5v0__tiel
*CAP
1 bidir_cs[6] 0.000657938
2 *25192:ZN 0.000657938
3 bidir_cs[6] bidir_ie[21] 0
4 bidir_cs[6] bidir_out[2] 0.000669064
5 bidir_cs[6] bidir_pu[2] 1.23313e-05
6 bidir_cs[6] bidir_sl[29] 0.000669064
7 bidir_cs[6] bidir_sl[8] 4.93483e-05
8 bidir_cs[0] bidir_cs[6] 0.000565317
*RES
1 *25192:ZN bidir_cs[6] 21.4854 
*END

*D_NET *40 0.00250223
*CONN
*P bidir_cs[7] O
*I *25193:ZN O *D gf180mcu_fd_sc_mcu7t5v0__tiel
*CAP
1 bidir_cs[7] 0.000397259
2 *25193:ZN 0.000397259
3 bidir_cs[7] bidir_ie[32] 1.72912e-05
4 bidir_cs[7] bidir_out[26] 0.00067169
5 bidir_cs[7] bidir_pd[15] 9.32583e-05
6 bidir_cs[7] bidir_pd[19] 0.000400164
7 bidir_cs[7] bidir_pd[35] 9.58084e-05
8 bidir_cs[7] bidir_pu[37] 8.55327e-05
9 bidir_cs[7] bidir_sl[19] 0.000117881
10 bidir_cs[7] bidir_sl[23] 9.20566e-06
11 bidir_cs[10] bidir_cs[7] 0.000216881
*RES
1 *25193:ZN bidir_cs[7] 15.0094 
*END

*D_NET *41 0.00173109
*CONN
*P bidir_cs[8] O
*I *25194:ZN O *D gf180mcu_fd_sc_mcu7t5v0__tiel
*CAP
1 bidir_cs[8] 0.000242195
2 *25194:ZN 0.000242195
3 bidir_cs[8] bidir_ie[0] 0.00062932
4 bidir_cs[8] bidir_ie[1] 2.9378e-06
5 bidir_cs[8] bidir_out[14] 3.08902e-05
6 bidir_cs[8] bidir_pu[25] 0.000520448
7 bidir_cs[8] bidir_pu[28] 6.18275e-06
8 bidir_cs[29] bidir_cs[8] 5.69191e-05
*RES
1 *25194:ZN bidir_cs[8] 13.0334 
*END

*D_NET *42 0.00183994
*CONN
*P bidir_cs[9] O
*I *25157:ZN O *D gf180mcu_fd_sc_mcu7t5v0__tiel
*CAP
1 bidir_cs[9] 0.000281372
2 *25157:ZN 0.000281372
3 bidir_cs[9] bidir_oe[15] 9.51024e-06
4 bidir_cs[9] bidir_oe[1] 7.30541e-05
5 bidir_cs[9] bidir_oe[9] 0.000466841
6 bidir_cs[9] bidir_pd[11] 8.94407e-05
7 bidir_cs[9] bidir_pu[30] 1.88647e-06
8 bidir_cs[9] bidir_sl[15] 0.00063646
*RES
1 *25157:ZN bidir_cs[9] 13.1854 
*END

*D_NET *43 0.00229729
*CONN
*P bidir_ie[0] O
*I *25195:ZN O *D gf180mcu_fd_sc_mcu7t5v0__tiel
*CAP
1 bidir_ie[0] 0.000510266
2 *25195:ZN 0.000510266
3 bidir_ie[0] bidir_out[14] 9.77316e-05
4 bidir_ie[0] bidir_pu[28] 0.000456858
5 bidir_ie[0] bidir_pu[5] 4.25807e-05
6 bidir_cs[1] bidir_ie[0] 0
7 bidir_cs[29] bidir_ie[0] 5.02724e-05
8 bidir_cs[8] bidir_ie[0] 0.00062932
*RES
1 *25195:ZN bidir_ie[0] 15.2374 
*END

*D_NET *44 0.0018045
*CONN
*P bidir_ie[10] O
*I *25197:ZN O *D gf180mcu_fd_sc_mcu7t5v0__tiel
*CAP
1 bidir_ie[10] 0.000237799
2 *25197:ZN 0.000237799
3 bidir_ie[10] bidir_ie[39] 0.000511159
4 bidir_ie[10] bidir_out[31] 5.37494e-05
5 bidir_ie[10] bidir_out[8] 0.000188022
6 bidir_ie[10] bidir_pd[32] 0.000535604
7 bidir_cs[14] bidir_ie[10] 4.03623e-05
*RES
1 *25197:ZN bidir_ie[10] 13.0334 
*END

*D_NET *45 0.00180932
*CONN
*P bidir_ie[11] O
*I *25198:ZN O *D gf180mcu_fd_sc_mcu7t5v0__tiel
*CAP
1 bidir_ie[11] 0.000116827
2 *25198:ZN 0.000116827
3 bidir_ie[11] bidir_out[23] 0.000862308
4 bidir_cs[32] bidir_ie[11] 4.25807e-05
5 bidir_cs[3] bidir_ie[11] 0.000670777
*RES
1 *25198:ZN bidir_ie[11] 13.4134 
*END

*D_NET *46 0.00199875
*CONN
*P bidir_ie[12] O
*I *25199:ZN O *D gf180mcu_fd_sc_mcu7t5v0__tiel
*CAP
1 bidir_ie[12] 0.000443841
2 *25199:ZN 0.000443841
3 bidir_ie[12] bidir_oe[1] 0.00037133
4 bidir_ie[12] bidir_oe[9] 0.000139414
5 bidir_ie[12] bidir_out[39] 0.000192331
6 bidir_ie[12] bidir_pd[12] 4.02804e-05
7 bidir_ie[12] bidir_sl[1] 0.000367708
*RES
1 *25199:ZN bidir_ie[12] 13.4894 
*END

*D_NET *47 0.00314768
*CONN
*P bidir_ie[13] O
*I *25200:ZN O *D gf180mcu_fd_sc_mcu7t5v0__tiel
*CAP
1 bidir_ie[13] 0.000681769
2 *25200:ZN 0.000681769
3 bidir_ie[13] bidir_ie[38] 0
4 bidir_ie[13] bidir_ie[8] 0.000110088
5 bidir_ie[13] bidir_oe[19] 0.000162632
6 bidir_ie[13] bidir_out[32] 9.75016e-05
7 bidir_ie[13] bidir_pu[17] 0.000637419
8 bidir_ie[13] bidir_pu[27] 0.000118105
9 bidir_ie[13] bidir_pu[32] 4.84492e-05
10 bidir_ie[13] bidir_sl[17] 0.000609944
11 bidir_ie[13] bidir_sl[5] 0
*RES
1 *25200:ZN bidir_ie[13] 21.062 
*END

*D_NET *48 0.00134587
*CONN
*P bidir_ie[14] O
*I *25201:ZN O *D gf180mcu_fd_sc_mcu7t5v0__tiel
*CAP
1 bidir_ie[14] 5.3528e-05
2 *25201:ZN 5.3528e-05
3 bidir_ie[14] bidir_out[11] 0.000110867
4 bidir_ie[14] bidir_pd[7] 0.000677926
5 bidir_ie[14] bidir_pu[12] 0.000450021
*RES
1 *25201:ZN bidir_ie[14] 12.2734 
*END

*D_NET *49 0.00216495
*CONN
*P bidir_ie[15] O
*I *25202:ZN O *D gf180mcu_fd_sc_mcu7t5v0__tiel
*CAP
1 bidir_ie[15] 0.00042585
2 *25202:ZN 0.00042585
3 bidir_ie[15] bidir_out[34] 7.59897e-05
4 bidir_ie[15] bidir_pd[13] 0.000450021
5 bidir_ie[15] bidir_pu[22] 0
6 bidir_ie[15] bidir_pu[37] 0.000703612
7 bidir_ie[15] bidir_pu[3] 5.11999e-05
8 bidir_cs[12] bidir_ie[15] 3.24312e-05
*RES
1 *25202:ZN bidir_ie[15] 14.6294 
*END

*D_NET *50 0.00316524
*CONN
*P bidir_ie[16] O
*I *25203:ZN O *D gf180mcu_fd_sc_mcu7t5v0__tiel
*CAP
1 bidir_ie[16] 0.000775655
2 *25203:ZN 0.000775655
3 bidir_ie[16] bidir_out[35] 6.38438e-05
4 bidir_ie[16] bidir_pu[15] 0.000450265
5 bidir_ie[16] bidir_sl[33] 0.00109982
*RES
1 *25203:ZN bidir_ie[16] 21.442 
*END

*D_NET *51 0.00379376
*CONN
*P bidir_ie[17] O
*I *25204:ZN O *D gf180mcu_fd_sc_mcu7t5v0__tiel
*CAP
1 bidir_ie[17] 0.000450903
2 *25204:ZN 0.000450903
3 bidir_ie[17] bidir_oe[29] 0.00115537
4 bidir_ie[17] bidir_out[7] 0
5 bidir_ie[17] bidir_pd[1] 0.00156092
6 bidir_ie[17] bidir_pd[24] 1.43775e-05
7 bidir_ie[17] bidir_pu[33] 6.80238e-06
8 bidir_ie[17] bidir_sl[2] 0.000154483
*RES
1 *25204:ZN bidir_ie[17] 21.4094 
*END

*D_NET *52 0.00317194
*CONN
*P bidir_ie[18] O
*I *25205:ZN O *D gf180mcu_fd_sc_mcu7t5v0__tiel
*CAP
1 bidir_ie[18] 0.000401024
2 *25205:ZN 0.000401024
3 bidir_ie[18] bidir_ie[6] 0.000919813
4 bidir_ie[18] bidir_oe[31] 0.00115794
5 bidir_ie[18] bidir_sl[29] 0
6 bidir_ie[18] bidir_sl[37] 1.47056e-05
7 bidir_ie[18] bidir_sl[9] 0.000143388
8 bidir_cs[35] bidir_ie[18] 0.00013405
*RES
1 *25205:ZN bidir_ie[18] 11.9534 
*END

*D_NET *53 0.00274627
*CONN
*P bidir_ie[19] O
*I *25206:ZN O *D gf180mcu_fd_sc_mcu7t5v0__tiel
*CAP
1 bidir_ie[19] 0.000269548
2 *25206:ZN 0.000269548
3 bidir_ie[19] bidir_out[15] 0.000975055
4 bidir_ie[19] bidir_out[20] 0.000144479
5 bidir_ie[19] bidir_sl[16] 0.000956869
6 bidir_cs[27] bidir_ie[19] 0.000130772
*RES
1 *25206:ZN bidir_ie[19] 11.1174 
*END

*D_NET *54 0.00196043
*CONN
*P bidir_ie[1] O
*I *25196:ZN O *D gf180mcu_fd_sc_mcu7t5v0__tiel
*CAP
1 bidir_ie[1] 0.000357427
2 *25196:ZN 0.000357427
3 bidir_ie[1] bidir_out[14] 4.52231e-05
4 bidir_ie[1] bidir_out[18] 0.000520448
5 bidir_ie[1] bidir_pu[28] 0.000118601
6 bidir_cs[1] bidir_ie[1] 0.000511167
7 bidir_cs[30] bidir_ie[1] 4.72007e-05
8 bidir_cs[8] bidir_ie[1] 2.9378e-06
*RES
1 *25196:ZN bidir_ie[1] 13.6414 
*END

*D_NET *55 0.00309216
*CONN
*P bidir_ie[20] O
*I *25208:ZN O *D gf180mcu_fd_sc_mcu7t5v0__tiel
*CAP
1 bidir_ie[20] 0.000611017
2 *25208:ZN 0.000611017
3 bidir_ie[20] bidir_ie[4] 0.000925777
4 bidir_ie[20] bidir_oe[20] 2.62421e-05
5 bidir_ie[20] bidir_out[25] 4.57506e-05
6 bidir_ie[20] bidir_out[28] 0.000240056
7 bidir_ie[20] bidir_pd[36] 0.000107266
8 bidir_ie[20] bidir_pu[10] 0.000412912
9 bidir_cs[39] bidir_ie[20] 0.000112121
*RES
1 *25208:ZN bidir_ie[20] 11.454 
*END

*D_NET *56 0.00321698
*CONN
*P bidir_ie[21] O
*I *25209:ZN O *D gf180mcu_fd_sc_mcu7t5v0__tiel
*CAP
1 bidir_ie[21] 0.000523056
2 *25209:ZN 0.000523056
3 bidir_ie[21] bidir_ie[25] 0
4 bidir_ie[21] bidir_oe[36] 0.00106365
5 bidir_ie[21] bidir_out[2] 7.98484e-05
6 bidir_ie[21] bidir_pu[2] 0
7 bidir_ie[21] bidir_sl[8] 0.000952293
8 bidir_cs[0] bidir_ie[21] 7.50749e-05
9 bidir_cs[6] bidir_ie[21] 0
*RES
1 *25209:ZN bidir_ie[21] 12.1814 
*END

*D_NET *57 0.00373988
*CONN
*P bidir_ie[22] O
*I *25210:ZN O *D gf180mcu_fd_sc_mcu7t5v0__tiel
*CAP
1 bidir_ie[22] 0.000317421
2 *25210:ZN 0.000317421
3 bidir_ie[22] bidir_oe[0] 0.000382882
4 bidir_ie[22] bidir_pd[17] 0.00159259
5 bidir_ie[22] bidir_pd[30] 0.00112957
6 bidir_ie[22] *341:8 0
*RES
1 *25210:ZN bidir_ie[22] 20.606 
*END

*D_NET *58 0.00177118
*CONN
*P bidir_ie[23] O
*I *25211:ZN O *D gf180mcu_fd_sc_mcu7t5v0__tiel
*CAP
1 bidir_ie[23] 0.000238267
2 *25211:ZN 0.000238267
3 bidir_ie[23] bidir_oe[16] 9.77316e-05
4 bidir_ie[23] bidir_pu[25] 4.52231e-05
5 bidir_ie[23] bidir_sl[21] 3.08902e-05
6 bidir_cs[18] bidir_ie[23] 0.000450021
7 bidir_cs[25] bidir_ie[23] 0.000670777
*RES
1 *25211:ZN bidir_ie[23] 13.2614 
*END

*D_NET *59 0.00325075
*CONN
*P bidir_ie[24] O
*I *25212:ZN O *D gf180mcu_fd_sc_mcu7t5v0__tiel
*CAP
1 bidir_ie[24] 0.000304289
2 *25212:ZN 0.000304289
3 bidir_ie[24] bidir_ie[26] 0.000983808
4 bidir_ie[24] bidir_ie[27] 0.000213194
5 bidir_ie[24] bidir_oe[14] 0.000571641
6 bidir_ie[24] bidir_out[24] 0
7 bidir_cs[4] bidir_ie[24] 0.000873525
*RES
1 *25212:ZN bidir_ie[24] 20.0414 
*END

*D_NET *60 0.00215714
*CONN
*P bidir_ie[25] O
*I *25213:ZN O *D gf180mcu_fd_sc_mcu7t5v0__tiel
*CAP
1 bidir_ie[25] 0.00105551
2 *25213:ZN 0.00105551
3 bidir_ie[25] bidir_oe[36] 0
4 bidir_ie[25] bidir_out[37] 4.61174e-05
5 bidir_ie[21] bidir_ie[25] 0
*RES
1 *25213:ZN bidir_ie[25] 11.4974 
*END

*D_NET *61 0.00315487
*CONN
*P bidir_ie[26] O
*I *25214:ZN O *D gf180mcu_fd_sc_mcu7t5v0__tiel
*CAP
1 bidir_ie[26] 0.000373503
2 *25214:ZN 0.000373503
3 bidir_ie[26] bidir_oe[14] 0.000151838
4 bidir_ie[26] bidir_oe[6] 1.47056e-05
5 bidir_ie[26] bidir_out[24] 0.00124795
6 bidir_ie[26] bidir_sl[11] 9.56442e-06
7 bidir_ie[24] bidir_ie[26] 0.000983808
*RES
1 *25214:ZN bidir_ie[26] 12.2574 
*END

*D_NET *62 0.00326228
*CONN
*P bidir_ie[27] O
*I *25215:ZN O *D gf180mcu_fd_sc_mcu7t5v0__tiel
*CAP
1 bidir_ie[27] 0.000289487
2 *25215:ZN 0.000289487
3 bidir_ie[27] bidir_oe[6] 0.00103661
4 bidir_ie[27] bidir_out[21] 8.04139e-05
5 bidir_ie[27] bidir_out[24] 0.000956869
6 bidir_ie[27] bidir_out[29] 0.000316374
7 bidir_ie[27] bidir_pu[7] 7.98484e-05
8 bidir_ie[24] bidir_ie[27] 0.000213194
*RES
1 *25215:ZN bidir_ie[27] 20.1174 
*END

*D_NET *63 0.00355202
*CONN
*P bidir_ie[28] O
*I *25216:ZN O *D gf180mcu_fd_sc_mcu7t5v0__tiel
*CAP
1 bidir_ie[28] 0.000318052
2 *25216:ZN 0.000318052
3 bidir_ie[28] bidir_oe[10] 1.9339e-05
4 bidir_ie[28] bidir_pd[6] 0.000956869
5 bidir_ie[28] bidir_sl[37] 8.69862e-05
6 bidir_ie[28] bidir_sl[4] 0.000458149
7 bidir_cs[11] bidir_ie[28] 0.000956869
8 bidir_cs[35] bidir_ie[28] 0.000437709
*RES
1 *25216:ZN bidir_ie[28] 20.7254 
*END

*D_NET *64 0.00314376
*CONN
*P bidir_ie[29] O
*I *25217:ZN O *D gf180mcu_fd_sc_mcu7t5v0__tiel
*CAP
1 bidir_ie[29] 0.000319956
2 *25217:ZN 0.000319956
3 bidir_ie[29] bidir_out[25] 0.000844853
4 bidir_ie[29] bidir_pu[10] 0
5 bidir_ie[29] *341:8 0.000814144
6 bidir_cs[21] bidir_ie[29] 0.000844853
*RES
1 *25217:ZN bidir_ie[29] 19.998 
*END

*D_NET *65 0.000859223
*CONN
*P bidir_ie[2] O
*I *25207:ZN O *D gf180mcu_fd_sc_mcu7t5v0__tiel
*CAP
1 bidir_ie[2] 6.95743e-05
2 *25207:ZN 6.95743e-05
3 bidir_ie[2] bidir_ie[7] 0.00047445
4 bidir_ie[2] *88:9 0.000245625
*RES
1 *25207:ZN bidir_ie[2] 11.318 
*END

*D_NET *66 0.00193168
*CONN
*P bidir_ie[30] O
*I *25219:ZN O *D gf180mcu_fd_sc_mcu7t5v0__tiel
*CAP
1 bidir_ie[30] 0.00010305
2 *25219:ZN 0.00010305
3 bidir_ie[30] bidir_sl[18] 0.000862791
4 bidir_ie[30] bidir_sl[35] 0.000862791
*RES
1 *25219:ZN bidir_ie[30] 8.946 
*END

*D_NET *67 0.00179933
*CONN
*P bidir_ie[31] O
*I *25220:ZN O *D gf180mcu_fd_sc_mcu7t5v0__tiel
*CAP
1 bidir_ie[31] 0.000285581
2 *25220:ZN 0.000285581
3 bidir_ie[31] bidir_ie[35] 0.00048878
4 bidir_ie[31] bidir_out[11] 9.47609e-05
5 bidir_ie[31] bidir_out[23] 0
6 bidir_ie[31] bidir_out[38] 0.000644626
7 bidir_ie[31] bidir_pd[7] 0
*RES
1 *25220:ZN bidir_ie[31] 13.7174 
*END

*D_NET *68 0.00237794
*CONN
*P bidir_ie[32] O
*I *25221:ZN O *D gf180mcu_fd_sc_mcu7t5v0__tiel
*CAP
1 bidir_ie[32] 0.000418285
2 *25221:ZN 0.000418285
3 bidir_ie[32] bidir_out[26] 5.11999e-05
4 bidir_ie[32] bidir_pd[35] 0.00063646
5 bidir_ie[32] bidir_pu[37] 4.01007e-05
6 bidir_cs[12] bidir_ie[32] 0.000796314
7 bidir_cs[7] bidir_ie[32] 1.72912e-05
*RES
1 *25221:ZN bidir_ie[32] 14.6294 
*END

*D_NET *69 0.00315499
*CONN
*P bidir_ie[33] O
*I *25222:ZN O *D gf180mcu_fd_sc_mcu7t5v0__tiel
*CAP
1 bidir_ie[33] 0.00046788
2 *25222:ZN 0.00046788
3 bidir_ie[33] bidir_pu[20] 0.00128831
4 bidir_ie[33] bidir_sl[11] 2.7805e-05
5 bidir_cs[27] bidir_ie[33] 0.000324145
6 bidir_cs[4] bidir_ie[33] 0.000578974
*RES
1 *25222:ZN bidir_ie[33] 12.1814 
*END

*D_NET *70 0.00221544
*CONN
*P bidir_ie[34] O
*I *25223:ZN O *D gf180mcu_fd_sc_mcu7t5v0__tiel
*CAP
1 bidir_ie[34] 0.000120072
2 *25223:ZN 0.000120072
3 bidir_ie[34] bidir_out[13] 0.000983808
4 bidir_ie[34] bidir_pu[8] 0.00099149
*RES
1 *25223:ZN bidir_ie[34] 9.59743 
*END

*D_NET *71 0.00159773
*CONN
*P bidir_ie[35] O
*I *25224:ZN O *D gf180mcu_fd_sc_mcu7t5v0__tiel
*CAP
1 bidir_ie[35] 0.0002269
2 *25224:ZN 0.0002269
3 bidir_ie[35] bidir_out[11] 0.00048878
4 bidir_ie[35] bidir_out[38] 1.71388e-05
5 bidir_ie[35] bidir_out[4] 0.000147313
6 bidir_ie[35] bidir_pd[18] 1.91917e-06
7 bidir_ie[31] bidir_ie[35] 0.00048878
*RES
1 *25224:ZN bidir_ie[35] 12.6534 
*END

*D_NET *72 0.00335861
*CONN
*P bidir_ie[36] O
*I *24944:ZN O *D gf180mcu_fd_sc_mcu7t5v0__tiel
*CAP
1 bidir_ie[36] 0.000336096
2 *24944:ZN 0.000336096
3 bidir_ie[36] bidir_ie[37] 0.00112957
4 bidir_ie[36] bidir_oe[33] 0.000997086
5 bidir_ie[36] bidir_pd[17] 0.000390205
6 bidir_ie[36] bidir_pd[30] 0.000169562
*RES
1 *24944:ZN bidir_ie[36] 11.454 
*END

*D_NET *73 0.00281572
*CONN
*P bidir_ie[37] O
*I *24945:ZN O *D gf180mcu_fd_sc_mcu7t5v0__tiel
*CAP
1 bidir_ie[37] 0.000278291
2 *24945:ZN 0.000278291
3 bidir_cs[19] bidir_ie[37] 0.00112957
4 bidir_ie[36] bidir_ie[37] 0.00112957
*RES
1 *24945:ZN bidir_ie[37] 19.998 
*END

*D_NET *74 0.00311584
*CONN
*P bidir_ie[38] O
*I *24946:ZN O *D gf180mcu_fd_sc_mcu7t5v0__tiel
*CAP
1 bidir_ie[38] 0.000548649
2 *24946:ZN 0.000548649
3 bidir_ie[38] bidir_oe[28] 0.000135297
4 bidir_ie[38] bidir_oe[4] 0
5 bidir_ie[38] bidir_out[32] 0.00109882
6 bidir_ie[38] bidir_pd[9] 0.000584655
7 bidir_ie[38] bidir_pu[9] 0.00019977
8 bidir_ie[13] bidir_ie[38] 0
*RES
1 *24946:ZN bidir_ie[38] 21.062 
*END

*D_NET *75 0.00233724
*CONN
*P bidir_ie[39] O
*I *24947:ZN O *D gf180mcu_fd_sc_mcu7t5v0__tiel
*CAP
1 bidir_ie[39] 0.000515446
2 *24947:ZN 0.000515446
3 bidir_ie[39] bidir_pd[23] 0
4 bidir_ie[39] bidir_pd[32] 7.30256e-05
5 bidir_ie[39] bidir_sl[13] 4.25807e-05
6 bidir_cs[13] bidir_ie[39] 5.02724e-05
7 bidir_cs[14] bidir_ie[39] 0.000629311
8 bidir_ie[10] bidir_ie[39] 0.000511159
*RES
1 *24947:ZN bidir_ie[39] 15.2374 
*END

*D_NET *76 0.00360058
*CONN
*P bidir_ie[3] O
*I *25218:ZN O *D gf180mcu_fd_sc_mcu7t5v0__tiel
*CAP
1 bidir_ie[3] 0.000376804
2 *25218:ZN 0.000376804
3 bidir_ie[3] bidir_out[33] 0.000659841
4 bidir_ie[3] bidir_out[35] 0.00075062
5 bidir_ie[3] bidir_out[3] 0
6 bidir_ie[3] bidir_pu[15] 0.000224128
7 bidir_ie[3] bidir_pu[29] 0.000470935
8 bidir_ie[3] bidir_sl[20] 7.4118e-05
9 bidir_ie[3] bidir_sl[33] 3.48497e-05
10 bidir_ie[3] input_pu 0.000209093
11 bidir_cs[15] bidir_ie[3] 0.000423391
*RES
1 *25218:ZN bidir_ie[3] 20.834 
*END

*D_NET *77 0.00328304
*CONN
*P bidir_ie[4] O
*I *24948:ZN O *D gf180mcu_fd_sc_mcu7t5v0__tiel
*CAP
1 bidir_ie[4] 0.000502479
2 *24948:ZN 0.000502479
3 bidir_ie[4] bidir_oe[20] 0.000176826
4 bidir_ie[4] bidir_oe[39] 0.000420235
5 bidir_ie[4] bidir_pu[10] 0.000335011
6 bidir_ie[4] bidir_pu[31] 0.000420235
7 bidir_ie[20] bidir_ie[4] 0.000925777
*RES
1 *24948:ZN bidir_ie[4] 20.074 
*END

*D_NET *78 0.00367739
*CONN
*P bidir_ie[5] O
*I *24949:ZN O *D gf180mcu_fd_sc_mcu7t5v0__tiel
*CAP
1 bidir_ie[5] 0.000413767
2 *24949:ZN 0.000413767
3 bidir_ie[5] bidir_pd[14] 1.97747e-05
4 bidir_ie[5] bidir_pd[22] 0.000143897
5 bidir_ie[5] bidir_pu[32] 7.41459e-05
6 bidir_ie[5] bidir_sl[12] 0.00130891
7 bidir_ie[5] bidir_sl[27] 1.1971e-05
8 bidir_ie[5] bidir_sl[28] 0.000707734
9 bidir_ie[5] input_pu 0.000450265
10 bidir_cs[23] bidir_ie[5] 0.000133162
*RES
1 *24949:ZN bidir_ie[5] 20.91 
*END

*D_NET *79 0.00314573
*CONN
*P bidir_ie[6] O
*I *24950:ZN O *D gf180mcu_fd_sc_mcu7t5v0__tiel
*CAP
1 bidir_ie[6] 0.000391542
2 *24950:ZN 0.000391542
3 bidir_ie[6] bidir_oe[31] 0
4 bidir_ie[6] bidir_out[2] 0.000213194
5 bidir_ie[6] bidir_pd[37] 0.000103782
6 bidir_ie[6] bidir_sl[9] 0.000964809
7 bidir_cs[35] bidir_ie[6] 0.000161051
8 bidir_ie[18] bidir_ie[6] 0.000919813
*RES
1 *24950:ZN bidir_ie[6] 20.6494 
*END

*D_NET *80 0.0014095
*CONN
*P bidir_ie[7] O
*I *24951:ZN O *D gf180mcu_fd_sc_mcu7t5v0__tiel
*CAP
1 bidir_ie[7] 0.000211163
2 *24951:ZN 0.000211163
3 bidir_ie[7] bidir_out[30] 0.000486809
4 bidir_ie[7] *88:9 2.59184e-05
5 bidir_ie[2] bidir_ie[7] 0.00047445
*RES
1 *24951:ZN bidir_ie[7] 12.458 
*END

*D_NET *81 0.00381126
*CONN
*P bidir_ie[8] O
*I *24952:ZN O *D gf180mcu_fd_sc_mcu7t5v0__tiel
*CAP
1 bidir_ie[8] 0.000394352
2 *24952:ZN 0.000394352
3 bidir_ie[8] bidir_out[5] 0.00012396
4 bidir_ie[8] bidir_pd[25] 0.000560139
5 bidir_ie[8] bidir_pu[17] 0.000207683
6 bidir_ie[8] bidir_pu[27] 2.79375e-05
7 bidir_ie[8] bidir_pu[32] 0.000237951
8 bidir_ie[8] bidir_sl[17] 0.000199565
9 bidir_ie[8] bidir_sl[36] 0.000865432
10 bidir_ie[8] bidir_sl[5] 0.000689797
11 bidir_ie[13] bidir_ie[8] 0.000110088
*RES
1 *24952:ZN bidir_ie[8] 21.138 
*END

*D_NET *82 0.00253872
*CONN
*P bidir_ie[9] O
*I *24953:ZN O *D gf180mcu_fd_sc_mcu7t5v0__tiel
*CAP
1 bidir_ie[9] 0.000680265
2 *24953:ZN 0.000680265
3 bidir_ie[9] bidir_oe[13] 0.000104782
4 bidir_ie[9] bidir_pu[24] 0.000327591
5 bidir_ie[9] bidir_pu[35] 0.000340951
6 bidir_ie[9] bidir_sl[6] 0.000404871
*RES
1 *24953:ZN bidir_ie[9] 11.15 
*END

*D_NET *83 0.00867613
*CONN
*P bidir_in[0] I
*I *449:I I *D gf180mcu_fd_sc_mcu7t5v0__antenna
*I *25236:I I *D gf180mcu_fd_sc_mcu7t5v0__dlyc_1
*CAP
1 bidir_in[0] 0.00169787
2 *449:I 0.000120279
3 *25236:I 0.00181815
4 *25236:I *25225:I 0.00240091
5 *25236:I *25241:I 0.00022245
6 *25236:I *25253:I 0.00131721
7 *25236:I *25260:I 4.63012e-05
8 *25236:I *25316:D 0.00036132
9 *25236:I *120:9 0.000691649
10 *25236:I *350:10 0
11 *25236:I *350:12 0
12 *25236:I *350:16 0
13 *25236:I *352:8 0
*RES
1 bidir_in[0] *25236:I 27.962 
2 *25236:I *449:I 9.836 
*END

*D_NET *84 0.0111477
*CONN
*P bidir_in[10] I
*I *25246:I I *D gf180mcu_fd_sc_mcu7t5v0__dlyc_1
*I *450:I I *D gf180mcu_fd_sc_mcu7t5v0__antenna
*CAP
1 bidir_in[10] 0.00132747
2 *25246:I 3.68703e-05
3 *450:I 0.000425284
4 *84:15 0.00178963
5 *450:I *455:I 0.000380072
6 *450:I *25269:CLK 0.000153475
7 *450:I *25273:D 1.72912e-05
8 *450:I *25289:D 0.000211917
9 *450:I *89:13 0.000229423
10 *25246:I *89:13 8.55242e-05
11 *84:15 *25257:I 0.000144998
12 *84:15 *25269:CLK 0.000300288
13 *84:15 *25273:D 9.54283e-05
14 *84:15 *25300:D 0.000526789
15 *84:15 *25301:D 0.000123951
16 *84:15 *25303:I 0.000101049
17 *84:15 *85:9 0.00458874
18 *84:15 *89:13 6.7501e-05
19 *84:15 *343:10 8.04285e-05
20 *84:15 *343:16 0
21 *84:15 *349:10 0.000461588
*RES
1 bidir_in[10] *84:15 21.714 
2 *84:15 *450:I 9.136 
3 *84:15 *25246:I 4.956 
*END

*D_NET *85 0.0104596
*CONN
*P bidir_in[11] I
*I *451:I I *D gf180mcu_fd_sc_mcu7t5v0__antenna
*I *25247:I I *D gf180mcu_fd_sc_mcu7t5v0__dlyc_1
*CAP
1 bidir_in[11] 0.00123651
2 *451:I 9.60077e-05
3 *25247:I 0.000203582
4 *85:9 0.0015361
5 *451:I *439:I 0.00077307
6 *451:I *25257:I 0.000403596
7 *25247:I *25257:I 0
8 *25247:I *328:8 4.52262e-05
9 *85:9 *439:I 0.000406043
10 *85:9 *25257:I 0.000247586
11 *85:9 *25276:D 0.000514804
12 *85:9 *25278:I 0.000408368
13 *85:9 *25284:D 0
14 *85:9 *25284:RN 0
15 *85:9 *25285:D 0
16 *85:9 *86:9 0
17 *84:15 *85:9 0.00458874
*RES
1 bidir_in[11] *85:9 16.302 
2 *85:9 *25247:I 10.14 
3 *85:9 *451:I 11.128 
*END

*D_NET *86 0.00739657
*CONN
*P bidir_in[12] I
*I *452:I I *D gf180mcu_fd_sc_mcu7t5v0__antenna
*I *25248:I I *D gf180mcu_fd_sc_mcu7t5v0__dlyc_1
*CAP
1 bidir_in[12] 0.000899721
2 *452:I 0
3 *25248:I 0.00112502
4 *86:9 0.00202474
5 *25248:I *25284:D 0.00010298
6 *25248:I *25285:D 9.27839e-05
7 *25248:I *25286:I 0.000332356
8 *25248:I *25325:D 8.64697e-06
9 *25248:I *25325:CLK 0.000269857
10 *25248:I *25327:I 0.000761544
11 *25248:I *328:8 1.72918e-05
12 *25248:I *332:33 0.00167629
13 *86:9 bidir_out[30] 8.53366e-05
14 *85:9 *86:9 0
*RES
1 bidir_in[12] *86:9 10.238 
2 *86:9 *25248:I 24.748 
3 *86:9 *452:I 4.5 
*END

*D_NET *87 0.0108005
*CONN
*P bidir_in[13] I
*I *25249:I I *D gf180mcu_fd_sc_mcu7t5v0__dlyc_1
*I *453:I I *D gf180mcu_fd_sc_mcu7t5v0__antenna
*CAP
1 bidir_in[13] 0.00183723
2 *25249:I 5.40077e-05
3 *453:I 0.00018586
4 *87:9 0.0020771
5 *453:I *25240:I 0
6 *453:I *25271:I 0
7 *25249:I *25272:D 0
8 *87:9 *25238:I 0.00150389
9 *87:9 *25240:I 0.000188736
10 *87:9 *25269:RN 0.00123186
11 *87:9 *25272:D 0
12 *87:9 *25283:I 0.000235963
13 *87:9 *121:9 0.000241236
14 *87:9 *346:18 0.000210598
15 *87:9 *346:39 0.002277
16 *87:9 *348:22 0.000757047
*RES
1 bidir_in[13] *87:9 26.35 
2 *87:9 *453:I 14.792 
3 *87:9 *25249:I 4.88 
*END

*D_NET *88 0.00904889
*CONN
*P bidir_in[14] I
*I *25250:I I *D gf180mcu_fd_sc_mcu7t5v0__dlyc_1
*I *454:I I *D gf180mcu_fd_sc_mcu7t5v0__antenna
*CAP
1 bidir_in[14] 0.00207601
2 *25250:I 0
3 *454:I 0.000160559
4 *88:9 0.00223657
5 *454:I *25257:I 0.000715765
6 *454:I *25278:I 0.000204162
7 *454:I *25324:D 0.000700133
8 *454:I *25326:I 1.20889e-05
9 *454:I *25327:I 8.79079e-05
10 *88:9 *441:I 4.29636e-06
11 *88:9 *25300:D 0.000443138
12 *88:9 *25324:D 0.000576271
13 *88:9 *25325:D 0
14 *88:9 *25325:CLK 0
15 *88:9 *25326:I 0.0013767
16 *88:9 *328:8 2.33073e-05
17 *88:9 *331:10 0
18 *88:9 *351:12 0.000160427
19 bidir_ie[2] *88:9 0.000245625
20 bidir_ie[7] *88:9 2.59184e-05
*RES
1 bidir_in[14] *88:9 21.182 
2 *88:9 *454:I 16.692 
3 *88:9 *25250:I 4.5 
*END

*D_NET *89 0.00893313
*CONN
*P bidir_in[15] I
*I *25251:I I *D gf180mcu_fd_sc_mcu7t5v0__dlyc_1
*I *455:I I *D gf180mcu_fd_sc_mcu7t5v0__antenna
*CAP
1 bidir_in[15] 0.00233291
2 *25251:I 0.000222961
3 *455:I 0.000394449
4 *89:13 0.00295032
5 *455:I *25269:RN 1.13134e-05
6 *455:I *346:39 1.3758e-05
7 *25251:I *25268:D 0
8 *25251:I *348:22 0.00046886
9 *89:13 *25233:I 0
10 *89:13 *25268:D 0
11 *89:13 *25272:D 0.00127043
12 *89:13 *25300:D 2.96621e-05
13 *89:13 *25303:I 0.000371757
14 *89:13 *343:16 0
15 *89:13 *347:16 0.000104192
16 *89:13 *353:20 0
17 *450:I *455:I 0.000380072
18 *450:I *89:13 0.000229423
19 *25246:I *89:13 8.55242e-05
20 *84:15 *89:13 6.7501e-05
*RES
1 bidir_in[15] *89:13 21.03 
2 *89:13 *455:I 7.312 
3 *89:13 *25251:I 16.008 
*END

*D_NET *94 0.0120589
*CONN
*P bidir_in[1] I
*I *25252:I I *D gf180mcu_fd_sc_mcu7t5v0__dlyc_1
*I *456:I I *D gf180mcu_fd_sc_mcu7t5v0__antenna
*CAP
1 bidir_in[1] 0.00221616
2 *25252:I 0.000559225
3 *456:I 0
4 *94:13 0.00277538
5 *25252:I *25315:I 0.000196402
6 *25252:I *25329:D 3.59561e-05
7 *25252:I *25338:I 0.000439272
8 *94:13 *25273:RN 0.000760559
9 *94:13 *25284:D 0.000796585
10 *94:13 *25288:D 0.000196859
11 *94:13 *25288:CLK 2.6126e-05
12 *94:13 *25289:D 8.76572e-05
13 *94:13 *119:9 0.00167378
14 *94:13 *329:14 0.000788989
15 *94:13 *347:16 0.00119927
16 *94:13 *347:18 0.00026906
17 *94:13 *347:28 3.76416e-05
*RES
1 bidir_in[1] *94:13 31.23 
2 *94:13 *456:I 9 
3 *94:13 *25252:I 12.8 
*END

*D_NET *105 0.00935885
*CONN
*P bidir_in[2] I
*I *457:I I *D gf180mcu_fd_sc_mcu7t5v0__antenna
*I *25253:I I *D gf180mcu_fd_sc_mcu7t5v0__dlyc_1
*CAP
1 bidir_in[2] 0.00191097
2 *457:I 0.000263664
3 *25253:I 0.00217464
4 *457:I *25267:I 4.03461e-05
5 *25253:I *25267:I 0
6 *25253:I *25296:D 0.000180346
7 *25253:I *25308:D 0.000271334
8 *25253:I *25317:RN 0.00125742
9 *25253:I *120:9 0.00132366
10 *25253:I *356:14 0.000619258
11 *25236:I *25253:I 0.00131721
*RES
1 bidir_in[2] *25253:I 27.658 
2 *25253:I *457:I 10.672 
*END

*D_NET *116 0.00821621
*CONN
*P bidir_in[3] I
*I *25237:I I *D gf180mcu_fd_sc_mcu7t5v0__dlyc_1
*I *441:I I *D gf180mcu_fd_sc_mcu7t5v0__antenna
*CAP
1 bidir_in[3] 0.00150547
2 *25237:I 0
3 *441:I 0.000202028
4 *116:9 0.0017075
5 *441:I *25257:I 0.000337459
6 *441:I *25278:I 0.000209843
7 *441:I *25326:I 7.67026e-05
8 *441:I *328:8 5.75752e-06
9 *441:I *351:12 0.00044442
10 *116:9 *447:I 2.6126e-05
11 *116:9 *25228:I 0.000215472
12 *116:9 *25300:D 0
13 *116:9 *25302:I 0.000121079
14 *116:9 *122:7 0.00310165
15 *116:9 *328:8 4.522e-05
16 *116:9 *331:10 0.000213178
17 *116:9 *351:12 0
18 *88:9 *441:I 4.29636e-06
*RES
1 bidir_in[3] *116:9 21.638 
2 *116:9 *441:I 16.16 
3 *116:9 *25237:I 4.5 
*END

*D_NET *117 0.0146695
*CONN
*P bidir_in[4] I
*I *442:I I *D gf180mcu_fd_sc_mcu7t5v0__antenna
*I *25238:I I *D gf180mcu_fd_sc_mcu7t5v0__dlyc_1
*CAP
1 bidir_in[4] 0.00198389
2 *442:I 0.00021265
3 *25238:I 0.00219654
4 *442:I *25292:D 0.000255722
5 *442:I *25295:I 0.000214458
6 *25238:I *25276:D 0.00196661
7 *25238:I *25292:D 0.000202179
8 *25238:I *25293:RN 0.00398435
9 *25238:I *25305:RN 0.000339321
10 *25238:I *121:9 0.00160131
11 *25238:I *346:39 0.00020862
12 *87:9 *25238:I 0.00150389
*RES
1 bidir_in[4] *25238:I 34.726 
2 *25238:I *442:I 19.52 
*END

*D_NET *118 0.00942311
*CONN
*P bidir_in[5] I
*I *443:I I *D gf180mcu_fd_sc_mcu7t5v0__antenna
*I *25239:I I *D gf180mcu_fd_sc_mcu7t5v0__dlyc_1
*CAP
1 bidir_in[5] 0.00115097
2 *443:I 0.000160866
3 *25239:I 6.25056e-05
4 *118:5 0.00137434
5 *443:I *25259:I 0.000460029
6 *443:I *120:9 3.38398e-05
7 *25239:I *120:9 2.6126e-05
8 *25239:I *352:8 0
9 *118:5 *25259:I 0.000484604
10 *118:5 *120:9 0.0025499
11 *118:5 *327:9 0.00186228
12 *118:5 *352:12 0.00125765
*RES
1 bidir_in[5] *118:5 15.998 
2 *118:5 *25239:I 9.38 
3 *118:5 *443:I 10.52 
*END

*D_NET *119 0.0118819
*CONN
*P bidir_in[6] I
*I *25240:I I *D gf180mcu_fd_sc_mcu7t5v0__dlyc_1
*I *444:I I *D gf180mcu_fd_sc_mcu7t5v0__antenna
*CAP
1 bidir_in[6] 0.00104342
2 *25240:I 0.000497252
3 *444:I 0
4 *119:9 0.00154067
5 *25240:I *25268:D 0
6 *25240:I *25270:I 0
7 *25240:I *25281:D 3.00299e-05
8 *25240:I *121:9 0
9 *25240:I *328:41 3.73535e-05
10 *25240:I *348:22 0.000113374
11 *119:9 *25273:RN 0.000190317
12 *119:9 *25281:D 0.000130607
13 *119:9 *25281:CLK 0.000249427
14 *119:9 *25282:I 0
15 *119:9 *25288:RN 0.00120117
16 *119:9 *25313:D 0.000104577
17 *119:9 *121:9 0.00382657
18 *119:9 *328:41 0.000274783
19 *119:9 *329:14 0.000779841
20 *453:I *25240:I 0
21 *87:9 *25240:I 0.000188736
22 *94:13 *119:9 0.00167378
*RES
1 bidir_in[6] *119:9 23.462 
2 *119:9 *444:I 4.5 
3 *119:9 *25240:I 17.452 
*END

*D_NET *120 0.0101486
*CONN
*P bidir_in[7] I
*I *25241:I I *D gf180mcu_fd_sc_mcu7t5v0__dlyc_1
*I *445:I I *D gf180mcu_fd_sc_mcu7t5v0__antenna
*CAP
1 bidir_in[7] 0.00148115
2 *25241:I 3.24236e-05
3 *445:I 0.000289585
4 *120:9 0.00180316
5 *445:I *350:10 2.57085e-05
6 *25241:I *350:10 0.000186796
7 *120:9 *25316:D 0.00127308
8 *120:9 *350:10 0.000209085
9 *120:9 *352:8 0
10 *443:I *120:9 3.38398e-05
11 *25236:I *25241:I 0.00022245
12 *25236:I *120:9 0.000691649
13 *25239:I *120:9 2.6126e-05
14 *25253:I *120:9 0.00132366
15 *118:5 *120:9 0.0025499
*RES
1 bidir_in[7] *120:9 22.246 
2 *120:9 *445:I 15.172 
3 *120:9 *25241:I 5.184 
*END

*D_NET *121 0.0124653
*CONN
*P bidir_in[8] I
*I *446:I I *D gf180mcu_fd_sc_mcu7t5v0__antenna
*I *25242:I I *D gf180mcu_fd_sc_mcu7t5v0__dlyc_1
*CAP
1 bidir_in[8] 0.00136286
2 *446:I 0.000335574
3 *25242:I 0.000110347
4 *121:9 0.00180878
5 *446:I *25275:I 2.76775e-05
6 *25242:I *25275:I 9.29071e-05
7 *121:9 *25283:I 0.00134763
8 *121:9 *25288:RN 0.00119645
9 *121:9 *25313:D 8.38765e-05
10 *121:9 *346:39 0.000430082
11 *25238:I *121:9 0.00160131
12 *25240:I *121:9 0
13 *87:9 *121:9 0.000241236
14 *119:9 *121:9 0.00382657
*RES
1 bidir_in[8] *121:9 21.47 
2 *121:9 *25242:I 9.836 
3 *121:9 *446:I 10.824 
*END

*D_NET *122 0.00707042
*CONN
*P bidir_in[9] I
*I *25243:I I *D gf180mcu_fd_sc_mcu7t5v0__dlyc_1
*I *447:I I *D gf180mcu_fd_sc_mcu7t5v0__antenna
*CAP
1 bidir_in[9] 0.00128989
2 *25243:I 0.000160253
3 *447:I 6.55168e-05
4 *122:7 0.00151566
5 *447:I *351:12 0
6 *25243:I *351:12 0
7 *122:7 *25228:I 1.99058e-05
8 *122:7 *25301:RN 2.04836e-05
9 *122:7 *25309:D 5.39963e-05
10 *122:7 *25310:I 0.000333301
11 *122:7 *25311:I 0.000223812
12 *122:7 *353:16 0.00025983
13 *116:9 *447:I 2.6126e-05
14 *116:9 *122:7 0.00310165
*RES
1 bidir_in[9] *122:7 20.65 
2 *122:7 *447:I 4.88 
3 *122:7 *25243:I 5.336 
*END

*D_NET *123 0.00337306
*CONN
*P bidir_oe[0] O
*I *24954:ZN O *D gf180mcu_fd_sc_mcu7t5v0__tiel
*CAP
1 bidir_oe[0] 0.000532271
2 *24954:ZN 0.000532271
3 bidir_oe[0] bidir_pd[17] 0.00159973
4 bidir_oe[0] bidir_pd[21] 2.47965e-05
5 bidir_oe[0] bidir_pd[30] 4.38802e-05
6 bidir_oe[0] bidir_sl[31] 0.000107266
7 bidir_cs[17] bidir_oe[0] 0.000149966
8 bidir_ie[22] bidir_oe[0] 0.000382882
*RES
1 *24954:ZN bidir_oe[0] 11.302 
*END

*D_NET *124 0.00326621
*CONN
*P bidir_oe[10] O
*I *24956:ZN O *D gf180mcu_fd_sc_mcu7t5v0__tiel
*CAP
1 bidir_oe[10] 0.000429666
2 *24956:ZN 0.000429666
3 bidir_oe[10] bidir_pd[26] 1.5961e-05
4 bidir_oe[10] bidir_pd[37] 0.000909303
5 bidir_oe[10] bidir_sl[37] 0.000155721
6 bidir_oe[10] bidir_sl[9] 8.55327e-05
7 bidir_cs[2] bidir_oe[10] 0.00122102
8 bidir_ie[28] bidir_oe[10] 1.9339e-05
*RES
1 *24956:ZN bidir_oe[10] 21.1814 
*END

*D_NET *125 0.00285978
*CONN
*P bidir_oe[11] O
*I *24957:ZN O *D gf180mcu_fd_sc_mcu7t5v0__tiel
*CAP
1 bidir_oe[11] 0.000400193
2 *24957:ZN 0.000400193
3 bidir_oe[11] bidir_oe[34] 0.000115716
4 bidir_oe[11] bidir_pu[39] 0.00110908
5 bidir_oe[11] *341:8 0
6 bidir_cs[37] bidir_oe[11] 0.000834607
*RES
1 *24957:ZN bidir_oe[11] 20.302 
*END

*D_NET *126 0.00177118
*CONN
*P bidir_oe[12] O
*I *24958:ZN O *D gf180mcu_fd_sc_mcu7t5v0__tiel
*CAP
1 bidir_oe[12] 0.000238267
2 *24958:ZN 0.000238267
3 bidir_oe[12] bidir_oe[2] 4.52231e-05
4 bidir_oe[12] bidir_out[18] 3.08902e-05
5 bidir_oe[12] bidir_pu[1] 9.77316e-05
6 bidir_oe[12] bidir_pu[36] 0.000670777
7 bidir_cs[30] bidir_oe[12] 0.000450021
*RES
1 *24958:ZN bidir_oe[12] 13.2614 
*END

*D_NET *127 0.0029648
*CONN
*P bidir_oe[13] O
*I *24959:ZN O *D gf180mcu_fd_sc_mcu7t5v0__tiel
*CAP
1 bidir_oe[13] 0.000482618
2 *24959:ZN 0.000482618
3 bidir_oe[13] bidir_oe[35] 0
4 bidir_oe[13] bidir_pd[28] 0.000576308
5 bidir_oe[13] bidir_pu[24] 4.99886e-05
6 bidir_oe[13] bidir_pu[35] 0.00102074
7 bidir_cs[38] bidir_oe[13] 0.000247747
8 bidir_ie[9] bidir_oe[13] 0.000104782
*RES
1 *24959:ZN bidir_oe[13] 11.606 
*END

*D_NET *128 0.00355813
*CONN
*P bidir_oe[14] O
*I *24960:ZN O *D gf180mcu_fd_sc_mcu7t5v0__tiel
*CAP
1 bidir_oe[14] 0.000346335
2 *24960:ZN 0.000346335
3 bidir_oe[14] bidir_sl[11] 0.00126846
4 bidir_cs[4] bidir_oe[14] 0.000873517
5 bidir_ie[24] bidir_oe[14] 0.000571641
6 bidir_ie[26] bidir_oe[14] 0.000151838
*RES
1 *24960:ZN bidir_oe[14] 20.9534 
*END

*D_NET *129 0.00241942
*CONN
*P bidir_oe[15] O
*I *24961:ZN O *D gf180mcu_fd_sc_mcu7t5v0__tiel
*CAP
1 bidir_oe[15] 0.000315049
2 *24961:ZN 0.000315049
3 bidir_oe[15] bidir_oe[17] 9.24463e-05
4 bidir_oe[15] bidir_oe[23] 0.000265188
5 bidir_oe[15] bidir_pd[11] 2.91078e-05
6 bidir_oe[15] bidir_pu[30] 0.000304421
7 bidir_oe[15] bidir_sl[26] 0.000543502
8 bidir_oe[15] bidir_sl[32] 0.000545143
9 bidir_cs[9] bidir_oe[15] 9.51024e-06
*RES
1 *24961:ZN bidir_oe[15] 14.1734 
*END

*D_NET *130 0.00216548
*CONN
*P bidir_oe[16] O
*I *25131:Z O *D gf180mcu_fd_sc_mcu7t5v0__tieh
*CAP
1 bidir_oe[16] 0.000448214
2 *25131:Z 0.000448214
3 bidir_oe[16] bidir_pd[23] 5.02724e-05
4 bidir_oe[16] bidir_sl[21] 0.00062932
5 bidir_cs[18] bidir_oe[16] 0.000456858
6 bidir_cs[25] bidir_oe[16] 3.4869e-05
7 bidir_cs[29] bidir_oe[16] 0
8 bidir_ie[23] bidir_oe[16] 9.77316e-05
*RES
1 *25131:Z bidir_oe[16] 14.7814 
*END

*D_NET *131 0.00156701
*CONN
*P bidir_oe[17] O
*I *25132:Z O *D gf180mcu_fd_sc_mcu7t5v0__tieh
*CAP
1 bidir_oe[17] 0.000212737
2 *25132:Z 0.000212737
3 bidir_oe[17] bidir_oe[23] 0.000592229
4 bidir_oe[17] bidir_pd[11] 0.000456858
5 bidir_oe[17] bidir_sl[32] 0
6 bidir_oe[15] bidir_oe[17] 9.24463e-05
*RES
1 *25132:Z bidir_oe[17] 12.5774 
*END

*D_NET *132 0.00497226
*CONN
*P bidir_oe[18] O
*I *25143:Z O *D gf180mcu_fd_sc_mcu7t5v0__tieh
*CAP
1 bidir_oe[18] 0.000397307
2 *25143:Z 0.000397307
3 bidir_oe[18] bidir_out[36] 3.41494e-05
4 bidir_oe[18] bidir_out[5] 0.000465634
5 bidir_oe[18] bidir_pd[14] 0.000482312
6 bidir_oe[18] bidir_pd[22] 3.75951e-05
7 bidir_oe[18] bidir_sl[12] 0.000368231
8 bidir_oe[18] bidir_sl[36] 0.000953375
9 bidir_cs[33] bidir_oe[18] 0.00183635
*RES
1 *25143:Z bidir_oe[18] 21.746 
*END

*D_NET *133 0.00353219
*CONN
*P bidir_oe[19] O
*I *25148:Z O *D gf180mcu_fd_sc_mcu7t5v0__tieh
*CAP
1 bidir_oe[19] 0.00060134
2 *25148:Z 0.00060134
3 bidir_oe[19] bidir_out[5] 0.000141821
4 bidir_oe[19] bidir_pd[25] 0.000783185
5 bidir_oe[19] bidir_pu[16] 0.000240056
6 bidir_oe[19] bidir_pu[17] 9.47849e-05
7 bidir_oe[19] bidir_pu[32] 1.6747e-05
8 bidir_oe[19] bidir_pu[9] 0.000212578
9 bidir_oe[19] bidir_sl[36] 0.000677704
10 bidir_oe[19] bidir_sl[5] 0
11 bidir_ie[13] bidir_oe[19] 0.000162632
*RES
1 *25148:Z bidir_oe[19] 21.518 
*END

*D_NET *134 0.00238826
*CONN
*P bidir_oe[1] O
*I *24955:ZN O *D gf180mcu_fd_sc_mcu7t5v0__tiel
*CAP
1 bidir_oe[1] 0.000556903
2 *24955:ZN 0.000556903
3 bidir_oe[1] bidir_oe[9] 0.000457763
4 bidir_oe[1] bidir_pu[13] 0.000148524
5 bidir_oe[1] bidir_sl[15] 8.64281e-06
6 bidir_oe[1] bidir_sl[1] 0.00012447
7 bidir_oe[1] bidir_sl[25] 9.06738e-05
8 bidir_cs[9] bidir_oe[1] 7.30541e-05
9 bidir_ie[12] bidir_oe[1] 0.00037133
*RES
1 *24955:ZN bidir_oe[1] 14.4014 
*END

*D_NET *135 0.00301771
*CONN
*P bidir_oe[20] O
*I *25149:Z O *D gf180mcu_fd_sc_mcu7t5v0__tieh
*CAP
1 bidir_oe[20] 0.00044529
2 *25149:Z 0.00044529
3 bidir_oe[20] bidir_out[25] 0.000914442
4 bidir_oe[20] bidir_pu[10] 0.000560139
5 bidir_oe[20] *341:8 0.000449483
6 bidir_cs[20] bidir_oe[20] 0
7 bidir_cs[21] bidir_oe[20] 0
8 bidir_ie[20] bidir_oe[20] 2.62421e-05
9 bidir_ie[4] bidir_oe[20] 0.000176826
*RES
1 *25149:Z bidir_oe[20] 20.758 
*END

*D_NET *136 0.00313173
*CONN
*P bidir_oe[21] O
*I *25150:Z O *D gf180mcu_fd_sc_mcu7t5v0__tieh
*CAP
1 bidir_oe[21] 0.000380325
2 *25150:Z 0.000380325
3 bidir_oe[21] bidir_out[29] 0.00013405
4 bidir_oe[21] bidir_pd[31] 0
5 bidir_oe[21] bidir_pd[5] 0.0010099
6 bidir_oe[21] bidir_pu[7] 9.51353e-05
7 bidir_oe[21] bidir_sl[4] 6.83457e-05
8 bidir_oe[21] input_pd 0.00106365
9 bidir_cs[24] bidir_oe[21] 0
*RES
1 *25150:Z bidir_oe[21] 20.8014 
*END

*D_NET *137 0.00240862
*CONN
*P bidir_oe[22] O
*I *25151:Z O *D gf180mcu_fd_sc_mcu7t5v0__tieh
*CAP
1 bidir_oe[22] 0.000506864
2 *25151:Z 0.000506864
3 bidir_oe[22] bidir_oe[8] 0.000240056
4 bidir_oe[22] bidir_pd[33] 0.000420235
5 bidir_oe[22] bidir_pu[39] 0.000355913
6 bidir_oe[22] bidir_pu[6] 7.22665e-05
7 bidir_oe[22] *341:8 2.70169e-05
8 bidir_cs[17] bidir_oe[22] 0.000279404
*RES
1 *25151:Z bidir_oe[22] 19.846 
*END

*D_NET *138 0.00149872
*CONN
*P bidir_oe[23] O
*I *25152:Z O *D gf180mcu_fd_sc_mcu7t5v0__tieh
*CAP
1 bidir_oe[23] 7.31583e-05
2 *25152:Z 7.31583e-05
3 bidir_oe[23] bidir_pd[11] 8.59272e-06
4 bidir_oe[23] bidir_sl[26] 0.000486394
5 bidir_oe[15] bidir_oe[23] 0.000265188
6 bidir_oe[17] bidir_oe[23] 0.000592229
*RES
1 *25152:Z bidir_oe[23] 12.0454 
*END

*D_NET *139 0.00374215
*CONN
*P bidir_oe[24] O
*I *25153:Z O *D gf180mcu_fd_sc_mcu7t5v0__tieh
*CAP
1 bidir_oe[24] 0.000332765
2 *25153:Z 0.000332765
3 bidir_oe[24] bidir_oe[38] 0.000232732
4 bidir_oe[24] bidir_oe[5] 7.44184e-05
5 bidir_oe[24] bidir_out[28] 0.00129647
6 bidir_oe[24] bidir_pd[27] 0.0013545
7 bidir_oe[24] *341:8 4.75539e-05
8 bidir_cs[20] bidir_oe[24] 7.09389e-05
*RES
1 *25153:Z bidir_oe[24] 20.454 
*END

*D_NET *140 0.00355096
*CONN
*P bidir_oe[25] O
*I *25155:Z O *D gf180mcu_fd_sc_mcu7t5v0__tieh
*CAP
1 bidir_oe[25] 0.000793859
2 *25155:Z 0.000793859
3 bidir_oe[25] bidir_out[22] 0.000934164
4 bidir_oe[25] bidir_out[7] 0.000101977
5 bidir_oe[25] bidir_pu[33] 0
6 bidir_oe[25] bidir_sl[22] 0.000914109
7 bidir_cs[26] bidir_oe[25] 1.2994e-05
8 bidir_cs[5] bidir_oe[25] 0
*RES
1 *25155:Z bidir_oe[25] 22.4734 
*END

*D_NET *141 0.00378592
*CONN
*P bidir_oe[26] O
*I *25133:Z O *D gf180mcu_fd_sc_mcu7t5v0__tieh
*CAP
1 bidir_oe[26] 0.000349197
2 *25133:Z 0.000349197
3 bidir_oe[26] bidir_pd[27] 0.000576267
4 bidir_oe[26] bidir_pd[36] 0.00139773
5 bidir_cs[20] bidir_oe[26] 0.00109882
6 bidir_cs[39] bidir_oe[26] 1.47088e-05
*RES
1 *25133:Z bidir_oe[26] 11.91 
*END

*D_NET *142 0.0033997
*CONN
*P bidir_oe[27] O
*I *25134:Z O *D gf180mcu_fd_sc_mcu7t5v0__tieh
*CAP
1 bidir_oe[27] 0.000560766
2 *25134:Z 0.000560766
3 bidir_oe[27] bidir_oe[32] 0.000192419
4 bidir_oe[27] bidir_oe[38] 0.000317381
5 bidir_oe[27] bidir_oe[5] 0.000256063
6 bidir_oe[27] bidir_out[28] 0
7 bidir_oe[27] bidir_pd[16] 0.000308026
8 bidir_oe[27] bidir_pd[36] 0.000324241
9 bidir_cs[20] bidir_oe[27] 0.000440019
10 bidir_cs[39] bidir_oe[27] 0.000440019
*RES
1 *25134:Z bidir_oe[27] 20.834 
*END

*D_NET *143 0.00304403
*CONN
*P bidir_oe[28] O
*I *25135:Z O *D gf180mcu_fd_sc_mcu7t5v0__tieh
*CAP
1 bidir_oe[28] 0.000553706
2 *25135:Z 0.000553706
3 bidir_oe[28] bidir_oe[4] 0.000884421
4 bidir_oe[28] bidir_out[32] 1.47088e-05
5 bidir_oe[28] bidir_pd[9] 0.000584655
6 bidir_oe[28] bidir_pu[9] 0.000207471
7 bidir_oe[28] bidir_sl[39] 9.53573e-05
8 bidir_oe[28] bidir_sl[7] 1.47088e-05
9 bidir_ie[38] bidir_oe[28] 0.000135297
*RES
1 *25135:Z bidir_oe[28] 12.062 
*END

*D_NET *144 0.00323965
*CONN
*P bidir_oe[29] O
*I *25136:Z O *D gf180mcu_fd_sc_mcu7t5v0__tieh
*CAP
1 bidir_oe[29] 0.000342159
2 *25136:Z 0.000342159
3 bidir_oe[29] bidir_oe[30] 4.84492e-05
4 bidir_oe[29] bidir_out[7] 0.00108486
5 bidir_oe[29] bidir_pd[1] 1.10835e-05
6 bidir_oe[29] bidir_pu[33] 0.000151005
7 bidir_oe[29] bidir_sl[2] 0.000104569
8 bidir_ie[17] bidir_oe[29] 0.00115537
*RES
1 *25136:Z bidir_oe[29] 21.1054 
*END

*D_NET *145 0.00196043
*CONN
*P bidir_oe[2] O
*I *24962:ZN O *D gf180mcu_fd_sc_mcu7t5v0__tiel
*CAP
1 bidir_oe[2] 0.000357427
2 *24962:ZN 0.000357427
3 bidir_oe[2] bidir_out[18] 2.9378e-06
4 bidir_oe[2] bidir_pd[39] 4.72007e-05
5 bidir_oe[2] bidir_pu[19] 0.000520448
6 bidir_cs[30] bidir_oe[2] 0.000118601
7 bidir_cs[36] bidir_oe[2] 0.000511167
8 bidir_oe[12] bidir_oe[2] 4.52231e-05
*RES
1 *24962:ZN bidir_oe[2] 13.6414 
*END

*D_NET *146 0.00352749
*CONN
*P bidir_oe[30] O
*I *25137:Z O *D gf180mcu_fd_sc_mcu7t5v0__tieh
*CAP
1 bidir_oe[30] 0.00041594
2 *25137:Z 0.00041594
3 bidir_oe[30] bidir_oe[37] 0.00108344
4 bidir_oe[30] bidir_oe[7] 8.96783e-05
5 bidir_oe[30] bidir_out[7] 1.5961e-05
6 bidir_oe[30] bidir_pd[1] 9.16934e-05
7 bidir_oe[30] bidir_pd[4] 0.00117099
8 bidir_oe[30] bidir_sl[14] 1.08028e-05
9 bidir_oe[30] bidir_sl[2] 6.69628e-05
10 bidir_cs[34] bidir_oe[30] 0.000117644
11 bidir_oe[29] bidir_oe[30] 4.84492e-05
*RES
1 *25137:Z bidir_oe[30] 22.0174 
*END

*D_NET *147 0.00292051
*CONN
*P bidir_oe[31] O
*I *25138:Z O *D gf180mcu_fd_sc_mcu7t5v0__tieh
*CAP
1 bidir_oe[31] 0.000425396
2 *25138:Z 0.000425396
3 bidir_oe[31] bidir_pd[37] 3.78032e-05
4 bidir_oe[31] bidir_sl[29] 0.000862725
5 bidir_oe[31] bidir_sl[9] 1.12495e-05
6 bidir_ie[18] bidir_oe[31] 0.00115794
7 bidir_ie[6] bidir_oe[31] 0
*RES
1 *25138:Z bidir_oe[31] 20.6494 
*END

*D_NET *148 0.00354063
*CONN
*P bidir_oe[32] O
*I *25139:Z O *D gf180mcu_fd_sc_mcu7t5v0__tieh
*CAP
1 bidir_oe[32] 0.000376676
2 *25139:Z 0.000376676
3 bidir_oe[32] bidir_oe[38] 0.000267487
4 bidir_oe[32] bidir_oe[5] 0.000519854
5 bidir_oe[32] bidir_pd[16] 4.85471e-05
6 bidir_oe[32] bidir_pd[8] 0.000325715
7 bidir_cs[16] bidir_oe[32] 0.00110311
8 bidir_cs[28] bidir_oe[32] 0.000330145
9 bidir_oe[27] bidir_oe[32] 0.000192419
*RES
1 *25139:Z bidir_oe[32] 20.53 
*END

*D_NET *149 0.00297429
*CONN
*P bidir_oe[33] O
*I *25140:Z O *D gf180mcu_fd_sc_mcu7t5v0__tieh
*CAP
1 bidir_oe[33] 0.00034755
2 *25140:Z 0.00034755
3 bidir_oe[33] bidir_pd[30] 0.000321511
4 bidir_oe[33] bidir_sl[35] 0.000480295
5 bidir_cs[19] bidir_oe[33] 0.000480295
6 bidir_ie[36] bidir_oe[33] 0.000997086
*RES
1 *25140:Z bidir_oe[33] 19.618 
*END

*D_NET *150 0.00324274
*CONN
*P bidir_oe[34] O
*I *25141:Z O *D gf180mcu_fd_sc_mcu7t5v0__tieh
*CAP
1 bidir_oe[34] 0.000460846
2 *25141:Z 0.000460846
3 bidir_oe[34] bidir_pd[20] 0.00029252
4 bidir_oe[34] bidir_pd[33] 0.000935297
5 bidir_oe[34] bidir_pu[18] 0.000560139
6 bidir_oe[34] bidir_pu[39] 1.47088e-05
7 bidir_cs[37] bidir_oe[34] 0.000402666
8 bidir_oe[11] bidir_oe[34] 0.000115716
*RES
1 *25141:Z bidir_oe[34] 11.53 
*END

*D_NET *151 0.00303782
*CONN
*P bidir_oe[35] O
*I *25142:Z O *D gf180mcu_fd_sc_mcu7t5v0__tieh
*CAP
1 bidir_oe[35] 0.000535398
2 *25142:Z 0.000535398
3 bidir_oe[35] bidir_out[17] 0.000842289
4 bidir_oe[35] bidir_pu[24] 9.75016e-05
5 bidir_oe[35] bidir_sl[38] 0.000117868
6 bidir_oe[35] bidir_sl[39] 0.000894658
7 bidir_oe[35] bidir_sl[7] 1.47088e-05
8 bidir_oe[13] bidir_oe[35] 0
*RES
1 *25142:Z bidir_oe[35] 12.062 
*END

*D_NET *152 0.0025026
*CONN
*P bidir_oe[36] O
*I *25144:Z O *D gf180mcu_fd_sc_mcu7t5v0__tieh
*CAP
1 bidir_oe[36] 0.000684003
2 *25144:Z 0.000684003
3 bidir_oe[36] bidir_sl[8] 7.09389e-05
4 bidir_ie[21] bidir_oe[36] 0.00106365
5 bidir_ie[25] bidir_oe[36] 0
*RES
1 *25144:Z bidir_oe[36] 20.4974 
*END

*D_NET *153 0.00348969
*CONN
*P bidir_oe[37] O
*I *25145:Z O *D gf180mcu_fd_sc_mcu7t5v0__tieh
*CAP
1 bidir_oe[37] 0.00054349
2 *25145:Z 0.00054349
3 bidir_oe[37] bidir_pd[24] 1.56182e-05
4 bidir_oe[37] bidir_pd[4] 5.40596e-05
5 bidir_oe[37] bidir_pu[0] 1.43775e-05
6 bidir_oe[37] bidir_sl[14] 0.00123522
7 bidir_oe[30] bidir_oe[37] 0.00108344
*RES
1 *25145:Z bidir_oe[37] 21.8654 
*END

*D_NET *154 0.00383944
*CONN
*P bidir_oe[38] O
*I *25146:Z O *D gf180mcu_fd_sc_mcu7t5v0__tieh
*CAP
1 bidir_oe[38] 0.000445979
2 *25146:Z 0.000445979
3 bidir_oe[38] bidir_oe[5] 0.00047004
4 bidir_oe[38] bidir_out[28] 0.000508458
5 bidir_cs[16] bidir_oe[38] 0.000987566
6 bidir_cs[28] bidir_oe[38] 0.000163815
7 bidir_oe[24] bidir_oe[38] 0.000232732
8 bidir_oe[27] bidir_oe[38] 0.000317381
9 bidir_oe[32] bidir_oe[38] 0.000267487
*RES
1 *25146:Z bidir_oe[38] 20.834 
*END

*D_NET *155 0.00388935
*CONN
*P bidir_oe[39] O
*I *25147:Z O *D gf180mcu_fd_sc_mcu7t5v0__tieh
*CAP
1 bidir_oe[39] 0.000313452
2 *25147:Z 0.000313452
3 bidir_oe[39] bidir_oe[8] 0.00129646
4 bidir_oe[39] bidir_pd[20] 0.000406855
5 bidir_oe[39] bidir_pu[18] 0.00101752
6 bidir_oe[39] bidir_pu[31] 6.30303e-05
7 bidir_oe[39] *341:8 3.24054e-05
8 bidir_cs[21] bidir_oe[39] 2.59409e-05
9 bidir_ie[4] bidir_oe[39] 0.000420235
*RES
1 *25147:Z bidir_oe[39] 20.15 
*END

*D_NET *156 0.00346548
*CONN
*P bidir_oe[3] O
*I *24963:ZN O *D gf180mcu_fd_sc_mcu7t5v0__tiel
*CAP
1 bidir_oe[3] 0.000617801
2 *24963:ZN 0.000617801
3 bidir_oe[3] bidir_out[27] 8.02751e-06
4 bidir_oe[3] bidir_out[33] 9.32583e-05
5 bidir_oe[3] bidir_pu[11] 0.000459785
6 bidir_oe[3] bidir_sl[27] 0.000173657
7 bidir_oe[3] bidir_sl[28] 4.98028e-05
8 bidir_cs[22] bidir_oe[3] 0.00144535
*RES
1 *24963:ZN bidir_oe[3] 21.442 
*END

*D_NET *157 0.00325204
*CONN
*P bidir_oe[4] O
*I *24964:ZN O *D gf180mcu_fd_sc_mcu7t5v0__tiel
*CAP
1 bidir_oe[4] 0.000511059
2 *24964:ZN 0.000511059
3 bidir_oe[4] bidir_out[17] 0.00028989
4 bidir_oe[4] bidir_out[32] 0.000224296
5 bidir_oe[4] bidir_pu[27] 0.000179996
6 bidir_oe[4] bidir_sl[17] 0
7 bidir_oe[4] bidir_sl[38] 0
8 bidir_oe[4] bidir_sl[39] 9.88736e-06
9 bidir_oe[4] bidir_sl[7] 3.70016e-05
10 bidir_cs[38] bidir_oe[4] 0.00060443
11 bidir_ie[38] bidir_oe[4] 0
12 bidir_oe[28] bidir_oe[4] 0.000884421
*RES
1 *24964:ZN bidir_oe[4] 21.138 
*END

*D_NET *158 0.00260523
*CONN
*P bidir_oe[5] O
*I *24965:ZN O *D gf180mcu_fd_sc_mcu7t5v0__tiel
*CAP
1 bidir_oe[5] 0.000461517
2 *24965:ZN 0.000461517
3 bidir_oe[5] bidir_out[28] 0.000246881
4 bidir_oe[5] bidir_pd[16] 4.66599e-05
5 bidir_oe[5] bidir_pd[27] 6.82842e-05
6 bidir_oe[24] bidir_oe[5] 7.44184e-05
7 bidir_oe[27] bidir_oe[5] 0.000256063
8 bidir_oe[32] bidir_oe[5] 0.000519854
9 bidir_oe[38] bidir_oe[5] 0.00047004
*RES
1 *24965:ZN bidir_oe[5] 11.074 
*END

*D_NET *159 0.00319191
*CONN
*P bidir_oe[6] O
*I *24966:ZN O *D gf180mcu_fd_sc_mcu7t5v0__tiel
*CAP
1 bidir_oe[6] 0.000459902
2 *24966:ZN 0.000459902
3 bidir_oe[6] bidir_out[21] 0
4 bidir_oe[6] bidir_out[24] 0.000185015
5 bidir_oe[6] bidir_out[29] 0.000926081
6 bidir_oe[6] bidir_sl[34] 0.000109702
7 bidir_ie[26] bidir_oe[6] 1.47056e-05
8 bidir_ie[27] bidir_oe[6] 0.00103661
*RES
1 *24966:ZN bidir_oe[6] 12.2574 
*END

*D_NET *160 0.00365881
*CONN
*P bidir_oe[7] O
*I *24967:ZN O *D gf180mcu_fd_sc_mcu7t5v0__tiel
*CAP
1 bidir_oe[7] 0.000451487
2 *24967:ZN 0.000451487
3 bidir_oe[7] bidir_out[0] 0
4 bidir_oe[7] bidir_pd[1] 0.000687105
5 bidir_oe[7] bidir_pd[24] 0.000953163
6 bidir_oe[7] bidir_pd[3] 2.97126e-05
7 bidir_oe[7] bidir_sl[14] 0.000953163
8 bidir_cs[34] bidir_oe[7] 3.17618e-05
9 bidir_cs[5] bidir_oe[7] 1.12495e-05
10 bidir_oe[30] bidir_oe[7] 8.96783e-05
*RES
1 *24967:ZN bidir_oe[7] 21.4854 
*END

*D_NET *161 0.00395359
*CONN
*P bidir_oe[8] O
*I *24968:ZN O *D gf180mcu_fd_sc_mcu7t5v0__tiel
*CAP
1 bidir_oe[8] 0.000427646
2 *24968:ZN 0.000427646
3 bidir_oe[8] bidir_pd[20] 0.00128932
4 bidir_oe[8] bidir_pd[33] 3.24083e-05
5 bidir_oe[8] bidir_pu[39] 0.000240056
6 bidir_oe[22] bidir_oe[8] 0.000240056
7 bidir_oe[39] bidir_oe[8] 0.00129646
*RES
1 *24968:ZN bidir_oe[8] 20.074 
*END

*D_NET *162 0.00220195
*CONN
*P bidir_oe[9] O
*I *24969:ZN O *D gf180mcu_fd_sc_mcu7t5v0__tiel
*CAP
1 bidir_oe[9] 0.000426989
2 *24969:ZN 0.000426989
3 bidir_oe[9] bidir_pd[12] 0.000199573
4 bidir_oe[9] bidir_pu[13] 1.42418e-05
5 bidir_oe[9] bidir_pu[30] 7.01367e-05
6 bidir_cs[9] bidir_oe[9] 0.000466841
7 bidir_ie[12] bidir_oe[9] 0.000139414
8 bidir_oe[1] bidir_oe[9] 0.000457763
*RES
1 *24969:ZN bidir_oe[9] 13.7934 
*END

*D_NET *163 0.00317614
*CONN
*P bidir_out[0] O
*I *24970:ZN O *D gf180mcu_fd_sc_mcu7t5v0__tiel
*CAP
1 bidir_out[0] 0.000675632
2 *24970:ZN 0.000675632
3 bidir_out[0] bidir_out[22] 1.08231e-05
4 bidir_out[0] bidir_pu[33] 0.000796866
5 bidir_out[0] bidir_sl[22] 2.75715e-05
6 bidir_cs[26] bidir_out[0] 0
7 bidir_cs[5] bidir_out[0] 0.000989614
8 bidir_oe[7] bidir_out[0] 0
*RES
1 *24970:ZN bidir_out[0] 21.4854 
*END

*D_NET *164 0.00353311
*CONN
*P bidir_out[10] O
*I *24972:ZN O *D gf180mcu_fd_sc_mcu7t5v0__tiel
*CAP
1 bidir_out[10] 0.00102787
2 *24972:ZN 0.00102787
3 bidir_out[10] bidir_out[1] 0.00104741
4 bidir_out[10] bidir_pu[14] 0.000284714
5 bidir_out[10] bidir_sl[30] 0.000145251
*RES
1 *24972:ZN bidir_out[10] 29.6874 
*END

*D_NET *165 0.00133312
*CONN
*P bidir_out[11] O
*I *24973:ZN O *D gf180mcu_fd_sc_mcu7t5v0__tiel
*CAP
1 bidir_out[11] 9.09262e-05
2 *24973:ZN 9.09262e-05
3 bidir_out[11] bidir_pu[12] 0.000456858
4 bidir_ie[14] bidir_out[11] 0.000110867
5 bidir_ie[31] bidir_out[11] 9.47609e-05
6 bidir_ie[35] bidir_out[11] 0.00048878
*RES
1 *24973:ZN bidir_out[11] 12.2734 
*END

*D_NET *166 0.00343902
*CONN
*P bidir_out[12] O
*I *24974:ZN O *D gf180mcu_fd_sc_mcu7t5v0__tiel
*CAP
1 bidir_out[12] 0.000281949
2 *24974:ZN 0.000281949
3 bidir_out[12] bidir_out[19] 0.000372636
4 bidir_out[12] bidir_sl[31] 0.00098994
5 bidir_out[12] *324:5 0.000834607
6 bidir_out[12] *341:8 0.000677941
*RES
1 *24974:ZN bidir_out[12] 19.694 
*END

*D_NET *167 0.00241235
*CONN
*P bidir_out[13] O
*I *24975:ZN O *D gf180mcu_fd_sc_mcu7t5v0__tiel
*CAP
1 bidir_out[13] 0.000222366
2 *24975:ZN 0.000222366
3 bidir_out[13] bidir_out[20] 0.000983808
4 bidir_ie[34] bidir_out[13] 0.000983808
*RES
1 *24975:ZN bidir_out[13] 19.1294 
*END

*D_NET *168 0.00177118
*CONN
*P bidir_out[14] O
*I *24976:ZN O *D gf180mcu_fd_sc_mcu7t5v0__tiel
*CAP
1 bidir_out[14] 0.000238267
2 *24976:ZN 0.000238267
3 bidir_out[14] bidir_pu[28] 0.000450021
4 bidir_out[14] bidir_pu[5] 0.000670777
5 bidir_cs[8] bidir_out[14] 3.08902e-05
6 bidir_ie[0] bidir_out[14] 9.77316e-05
7 bidir_ie[1] bidir_out[14] 4.52231e-05
*RES
1 *24976:ZN bidir_out[14] 13.2614 
*END

*D_NET *169 0.00270634
*CONN
*P bidir_out[15] O
*I *24977:ZN O *D gf180mcu_fd_sc_mcu7t5v0__tiel
*CAP
1 bidir_out[15] 0.000312104
2 *24977:ZN 0.000312104
3 bidir_out[15] bidir_sl[16] 0.000154785
4 bidir_cs[27] bidir_out[15] 0.000952293
5 bidir_ie[19] bidir_out[15] 0.000975055
*RES
1 *24977:ZN bidir_out[15] 19.7374 
*END

*D_NET *170 0.00221529
*CONN
*P bidir_out[16] O
*I *25156:Z O *D gf180mcu_fd_sc_mcu7t5v0__tieh
*CAP
1 bidir_out[16] 0.000356264
2 *25156:Z 0.000356264
3 bidir_out[16] bidir_pu[23] 0.000636469
4 bidir_out[16] bidir_pu[4] 3.66858e-05
5 bidir_out[16] bidir_sl[0] 0.000796314
6 bidir_out[16] bidir_sl[25] 3.32983e-05
*RES
1 *25156:Z bidir_out[16] 14.1734 
*END

*D_NET *171 0.00309786
*CONN
*P bidir_out[17] O
*I *24978:ZN O *D gf180mcu_fd_sc_mcu7t5v0__tiel
*CAP
1 bidir_out[17] 0.000478483
2 *24978:ZN 0.000478483
3 bidir_out[17] bidir_sl[38] 0.000834598
4 bidir_out[17] bidir_sl[39] 0.000174115
5 bidir_oe[35] bidir_out[17] 0.000842289
6 bidir_oe[4] bidir_out[17] 0.00028989
*RES
1 *24978:ZN bidir_out[17] 20.758 
*END

*D_NET *172 0.00173109
*CONN
*P bidir_out[18] O
*I *24979:ZN O *D gf180mcu_fd_sc_mcu7t5v0__tiel
*CAP
1 bidir_out[18] 0.000242195
2 *24979:ZN 0.000242195
3 bidir_out[18] bidir_pu[1] 0.00062932
4 bidir_cs[1] bidir_out[18] 5.69191e-05
5 bidir_cs[30] bidir_out[18] 6.18275e-06
6 bidir_ie[1] bidir_out[18] 0.000520448
7 bidir_oe[12] bidir_out[18] 3.08902e-05
8 bidir_oe[2] bidir_out[18] 2.9378e-06
*RES
1 *24979:ZN bidir_out[18] 13.0334 
*END

*D_NET *173 0.00364121
*CONN
*P bidir_out[19] O
*I *24980:ZN O *D gf180mcu_fd_sc_mcu7t5v0__tiel
*CAP
1 bidir_out[19] 0.000289413
2 *24980:ZN 0.000289413
3 bidir_out[19] bidir_pu[6] 0.00110907
4 bidir_out[19] bidir_sl[31] 0.00158068
5 bidir_out[19] *341:8 0
6 bidir_out[12] bidir_out[19] 0.000372636
*RES
1 *24980:ZN bidir_out[19] 20.302 
*END

*D_NET *174 0.00407017
*CONN
*P bidir_out[1] O
*I *24971:ZN O *D gf180mcu_fd_sc_mcu7t5v0__tiel
*CAP
1 bidir_out[1] 0.000588202
2 *24971:ZN 0.000588202
3 bidir_out[1] bidir_pu[14] 0.00152211
4 bidir_cs[34] bidir_out[1] 0.000324249
5 bidir_out[10] bidir_out[1] 0.00104741
*RES
1 *24971:ZN bidir_out[1] 20.4974 
*END

*D_NET *175 0.00279239
*CONN
*P bidir_out[20] O
*I *24981:ZN O *D gf180mcu_fd_sc_mcu7t5v0__tiel
*CAP
1 bidir_out[20] 0.00033084
2 *24981:ZN 0.00033084
3 bidir_out[20] bidir_pu[8] 4.55526e-05
4 bidir_out[20] bidir_sl[16] 0.000956869
5 bidir_ie[19] bidir_out[20] 0.000144479
6 bidir_out[13] bidir_out[20] 0.000983808
*RES
1 *24981:ZN bidir_out[20] 11.3454 
*END

*D_NET *176 0.0031065
*CONN
*P bidir_out[21] O
*I *24983:ZN O *D gf180mcu_fd_sc_mcu7t5v0__tiel
*CAP
1 bidir_out[21] 0.000346222
2 *24983:ZN 0.000346222
3 bidir_out[21] bidir_pd[5] 1.47056e-05
4 bidir_out[21] bidir_pu[7] 0.000943566
5 bidir_out[21] bidir_sl[34] 0.00125105
6 bidir_cs[24] bidir_out[21] 0.000124324
7 bidir_ie[27] bidir_out[21] 8.04139e-05
8 bidir_oe[6] bidir_out[21] 0
*RES
1 *24983:ZN bidir_out[21] 11.7254 
*END

*D_NET *177 0.0043775
*CONN
*P bidir_out[22] O
*I *24984:ZN O *D gf180mcu_fd_sc_mcu7t5v0__tiel
*CAP
1 bidir_out[22] 0.000471676
2 *24984:ZN 0.000471676
3 bidir_out[22] bidir_pd[1] 1.5961e-05
4 bidir_out[22] bidir_sl[22] 0.000801517
5 bidir_cs[26] bidir_out[22] 0.00162613
6 bidir_cs[5] bidir_out[22] 4.55526e-05
7 bidir_oe[25] bidir_out[22] 0.000934164
8 bidir_out[0] bidir_out[22] 1.08231e-05
*RES
1 *24984:ZN bidir_out[22] 22.2454 
*END

*D_NET *178 0.00208736
*CONN
*P bidir_out[23] O
*I *24985:ZN O *D gf180mcu_fd_sc_mcu7t5v0__tiel
*CAP
1 bidir_out[23] 0.000328483
2 *24985:ZN 0.000328483
3 bidir_out[23] bidir_out[38] 0
4 bidir_out[23] bidir_pd[18] 5.69191e-05
5 bidir_out[23] bidir_pu[26] 0.000511167
6 bidir_cs[32] bidir_out[23] 0
7 bidir_ie[11] bidir_out[23] 0.000862308
8 bidir_ie[31] bidir_out[23] 0
*RES
1 *24985:ZN bidir_out[23] 14.0214 
*END

*D_NET *179 0.00308621
*CONN
*P bidir_out[24] O
*I *24986:ZN O *D gf180mcu_fd_sc_mcu7t5v0__tiel
*CAP
1 bidir_out[24] 0.000348191
2 *24986:ZN 0.000348191
3 bidir_ie[24] bidir_out[24] 0
4 bidir_ie[26] bidir_out[24] 0.00124795
5 bidir_ie[27] bidir_out[24] 0.000956869
6 bidir_oe[6] bidir_out[24] 0.000185015
*RES
1 *24986:ZN bidir_out[24] 20.8014 
*END

*D_NET *180 0.00286347
*CONN
*P bidir_out[25] O
*I *24987:ZN O *D gf180mcu_fd_sc_mcu7t5v0__tiel
*CAP
1 bidir_out[25] 0.000463998
2 *24987:ZN 0.000463998
3 bidir_out[25] bidir_pu[31] 1.47088e-05
4 bidir_cs[21] bidir_out[25] 0.000115716
5 bidir_ie[20] bidir_out[25] 4.57506e-05
6 bidir_ie[29] bidir_out[25] 0.000844853
7 bidir_oe[20] bidir_out[25] 0.000914442
*RES
1 *24987:ZN bidir_out[25] 11.454 
*END

*D_NET *181 0.0021609
*CONN
*P bidir_out[26] O
*I *24988:ZN O *D gf180mcu_fd_sc_mcu7t5v0__tiel
*CAP
1 bidir_out[26] 0.000423024
2 *24988:ZN 0.000423024
3 bidir_out[26] bidir_pd[35] 5.87975e-05
4 bidir_out[26] bidir_sl[19] 3.83782e-05
5 bidir_out[26] bidir_sl[23] 0.000494788
6 bidir_cs[12] bidir_out[26] 0
7 bidir_cs[7] bidir_out[26] 0.00067169
8 bidir_ie[32] bidir_out[26] 5.11999e-05
*RES
1 *24988:ZN bidir_out[26] 14.6294 
*END

*D_NET *182 0.00392899
*CONN
*P bidir_out[27] O
*I *24989:ZN O *D gf180mcu_fd_sc_mcu7t5v0__tiel
*CAP
1 bidir_out[27] 0.00052316
2 *24989:ZN 0.00052316
3 bidir_out[27] bidir_pu[11] 0.00161065
4 bidir_out[27] bidir_pu[29] 0.000449897
5 bidir_out[27] bidir_sl[27] 0
6 bidir_cs[22] bidir_out[27] 0.000814097
7 bidir_oe[3] bidir_out[27] 8.02751e-06
*RES
1 *24989:ZN bidir_out[27] 21.214 
*END

*D_NET *183 0.00363022
*CONN
*P bidir_out[28] O
*I *24990:ZN O *D gf180mcu_fd_sc_mcu7t5v0__tiel
*CAP
1 bidir_out[28] 0.000549153
2 *24990:ZN 0.000549153
3 bidir_out[28] bidir_pd[36] 0.000240056
4 bidir_ie[20] bidir_out[28] 0.000240056
5 bidir_oe[24] bidir_out[28] 0.00129647
6 bidir_oe[27] bidir_out[28] 0
7 bidir_oe[38] bidir_out[28] 0.000508458
8 bidir_oe[5] bidir_out[28] 0.000246881
*RES
1 *24990:ZN bidir_out[28] 20.378 
*END

*D_NET *184 0.00326925
*CONN
*P bidir_out[29] O
*I *24991:ZN O *D gf180mcu_fd_sc_mcu7t5v0__tiel
*CAP
1 bidir_out[29] 0.000344225
2 *24991:ZN 0.000344225
3 bidir_out[29] bidir_pd[5] 0.000127484
4 bidir_out[29] bidir_pu[7] 0.000142185
5 bidir_out[29] bidir_sl[34] 0.000934628
6 bidir_ie[27] bidir_out[29] 0.000316374
7 bidir_oe[21] bidir_out[29] 0.00013405
8 bidir_oe[6] bidir_out[29] 0.000926081
*RES
1 *24991:ZN bidir_out[29] 20.4214 
*END

*D_NET *185 0.00347483
*CONN
*P bidir_out[2] O
*I *24982:ZN O *D gf180mcu_fd_sc_mcu7t5v0__tiel
*CAP
1 bidir_out[2] 0.000443213
2 *24982:ZN 0.000443213
3 bidir_out[2] bidir_pu[2] 0.000946622
4 bidir_out[2] bidir_sl[29] 0.000524891
5 bidir_out[2] bidir_sl[8] 0.000154785
6 bidir_cs[0] bidir_out[2] 0
7 bidir_cs[6] bidir_out[2] 0.000669064
8 bidir_ie[21] bidir_out[2] 7.98484e-05
9 bidir_ie[6] bidir_out[2] 0.000213194
*RES
1 *24982:ZN bidir_out[2] 20.7254 
*END

*D_NET *186 0.000835129
*CONN
*P bidir_out[30] O
*I *24992:ZN O *D gf180mcu_fd_sc_mcu7t5v0__tiel
*CAP
1 bidir_out[30] 0.000131492
2 *24992:ZN 0.000131492
3 bidir_ie[7] bidir_out[30] 0.000486809
4 *86:9 bidir_out[30] 8.53366e-05
*RES
1 *24992:ZN bidir_out[30] 11.318 
*END

*D_NET *187 0.00169619
*CONN
*P bidir_out[31] O
*I *24994:ZN O *D gf180mcu_fd_sc_mcu7t5v0__tiel
*CAP
1 bidir_out[31] 0.000367781
2 *24994:ZN 0.000367781
3 bidir_cs[13] bidir_out[31] 0.000456858
4 bidir_cs[14] bidir_out[31] 0.000450021
5 bidir_ie[10] bidir_out[31] 5.37494e-05
*RES
1 *24994:ZN bidir_out[31] 13.3374 
*END

*D_NET *188 0.0029728
*CONN
*P bidir_out[32] O
*I *24995:ZN O *D gf180mcu_fd_sc_mcu7t5v0__tiel
*CAP
1 bidir_out[32] 0.000459919
2 *24995:ZN 0.000459919
3 bidir_out[32] bidir_sl[17] 0.000617635
4 bidir_ie[13] bidir_out[32] 9.75016e-05
5 bidir_ie[38] bidir_out[32] 0.00109882
6 bidir_oe[28] bidir_out[32] 1.47088e-05
7 bidir_oe[4] bidir_out[32] 0.000224296
*RES
1 *24995:ZN bidir_out[32] 11.606 
*END

*D_NET *189 0.00401419
*CONN
*P bidir_out[33] O
*I *24996:ZN O *D gf180mcu_fd_sc_mcu7t5v0__tiel
*CAP
1 bidir_out[33] 0.000395086
2 *24996:ZN 0.000395086
3 bidir_out[33] bidir_out[3] 0.000609953
4 bidir_out[33] bidir_pd[38] 0.000124309
5 bidir_out[33] bidir_pu[29] 0.00146983
6 bidir_out[33] bidir_sl[20] 0.000205287
7 bidir_out[33] input_pu 6.15468e-05
8 bidir_ie[3] bidir_out[33] 0.000659841
9 bidir_oe[3] bidir_out[33] 9.32583e-05
*RES
1 *24996:ZN bidir_out[33] 21.29 
*END

*D_NET *190 0.00213442
*CONN
*P bidir_out[34] O
*I *24997:ZN O *D gf180mcu_fd_sc_mcu7t5v0__tiel
*CAP
1 bidir_out[34] 0.000287433
2 *24997:ZN 0.000287433
3 bidir_out[34] bidir_pd[13] 0.000464008
4 bidir_out[34] bidir_pd[34] 0.000196389
5 bidir_out[34] bidir_pu[34] 0.000113348
6 bidir_out[34] bidir_pu[37] 7.33509e-05
7 bidir_out[34] bidir_pu[3] 0.000636469
8 bidir_ie[15] bidir_out[34] 7.59897e-05
*RES
1 *24997:ZN bidir_out[34] 14.0974 
*END

*D_NET *191 0.0038634
*CONN
*P bidir_out[35] O
*I *24998:ZN O *D gf180mcu_fd_sc_mcu7t5v0__tiel
*CAP
1 bidir_out[35] 0.000374127
2 *24998:ZN 0.000374127
3 bidir_out[35] bidir_out[3] 0.00050777
4 bidir_out[35] bidir_pd[38] 0.000410348
5 bidir_out[35] bidir_pu[15] 4.83197e-05
6 bidir_out[35] bidir_sl[20] 0.00022008
7 bidir_out[35] bidir_sl[33] 0.00111416
8 bidir_ie[16] bidir_out[35] 6.38438e-05
9 bidir_ie[3] bidir_out[35] 0.00075062
*RES
1 *24998:ZN bidir_out[35] 20.834 
*END

*D_NET *192 0.00388499
*CONN
*P bidir_out[36] O
*I *24999:ZN O *D gf180mcu_fd_sc_mcu7t5v0__tiel
*CAP
1 bidir_out[36] 0.000647793
2 *24999:ZN 0.000647793
3 bidir_out[36] bidir_out[5] 0.000588308
4 bidir_out[36] bidir_pd[14] 0.000222378
5 bidir_out[36] bidir_pu[16] 0.000757808
6 bidir_out[36] bidir_pu[17] 6.04444e-06
7 bidir_out[36] bidir_pu[32] 0.000278195
8 bidir_out[36] bidir_sl[36] 0.000702525
9 bidir_oe[18] bidir_out[36] 3.41494e-05
*RES
1 *24999:ZN bidir_out[36] 21.29 
*END

*D_NET *193 0.00179977
*CONN
*P bidir_out[37] O
*I *25000:ZN O *D gf180mcu_fd_sc_mcu7t5v0__tiel
*CAP
1 bidir_out[37] 0.000876828
2 *25000:ZN 0.000876828
3 bidir_ie[25] bidir_out[37] 4.61174e-05
*RES
1 *25000:ZN bidir_out[37] 11.0523 
*END

*D_NET *194 0.0016264
*CONN
*P bidir_out[38] O
*I *25001:ZN O *D gf180mcu_fd_sc_mcu7t5v0__tiel
*CAP
1 bidir_out[38] 0.000197635
2 *25001:ZN 0.000197635
3 bidir_out[38] bidir_out[4] 0.000456858
4 bidir_out[38] bidir_pd[18] 0.000112509
5 bidir_ie[31] bidir_out[38] 0.000644626
6 bidir_ie[35] bidir_out[38] 1.71388e-05
7 bidir_out[23] bidir_out[38] 0
*RES
1 *25001:ZN bidir_out[38] 12.9574 
*END

*D_NET *195 0.00245369
*CONN
*P bidir_out[39] O
*I *25002:ZN O *D gf180mcu_fd_sc_mcu7t5v0__tiel
*CAP
1 bidir_out[39] 0.000370272
2 *25002:ZN 0.000370272
3 bidir_out[39] bidir_pd[12] 8.12946e-05
4 bidir_out[39] bidir_pu[23] 0
5 bidir_out[39] bidir_pu[34] 2.00448e-05
6 bidir_out[39] bidir_sl[0] 0.000393015
7 bidir_out[39] bidir_sl[10] 0.000626302
8 bidir_out[39] bidir_sl[25] 0.000400164
9 bidir_ie[12] bidir_out[39] 0.000192331
*RES
1 *25002:ZN bidir_out[39] 14.0974 
*END

*D_NET *196 0.00378247
*CONN
*P bidir_out[3] O
*I *24993:ZN O *D gf180mcu_fd_sc_mcu7t5v0__tiel
*CAP
1 bidir_out[3] 0.000563035
2 *24993:ZN 0.000563035
3 bidir_out[3] bidir_pd[38] 0.000106965
4 bidir_out[3] bidir_pu[15] 0
5 bidir_out[3] bidir_pu[29] 2.72719e-05
6 bidir_out[3] bidir_sl[20] 0.000171732
7 bidir_out[3] input_pu 6.38248e-05
8 bidir_cs[15] bidir_out[3] 0.00068308
9 bidir_cs[22] bidir_out[3] 0.0004858
10 bidir_ie[3] bidir_out[3] 0
11 bidir_out[33] bidir_out[3] 0.000609953
12 bidir_out[35] bidir_out[3] 0.00050777
*RES
1 *24993:ZN bidir_out[3] 21.442 
*END

*D_NET *197 0.00150761
*CONN
*P bidir_out[4] O
*I *25003:ZN O *D gf180mcu_fd_sc_mcu7t5v0__tiel
*CAP
1 bidir_out[4] 0.000196596
2 *25003:ZN 0.000196596
3 bidir_out[4] bidir_pd[18] 0.000463041
4 bidir_out[4] bidir_pu[26] 4.72007e-05
5 bidir_ie[35] bidir_out[4] 0.000147313
6 bidir_out[38] bidir_out[4] 0.000456858
*RES
1 *25003:ZN bidir_out[4] 12.4254 
*END

*D_NET *198 0.00342849
*CONN
*P bidir_out[5] O
*I *25004:ZN O *D gf180mcu_fd_sc_mcu7t5v0__tiel
*CAP
1 bidir_out[5] 0.000587605
2 *25004:ZN 0.000587605
3 bidir_out[5] bidir_pd[14] 4.85394e-05
4 bidir_out[5] bidir_pd[22] 0.00056783
5 bidir_out[5] bidir_pu[32] 0.000227377
6 bidir_out[5] bidir_sl[12] 2.03665e-05
7 bidir_out[5] bidir_sl[28] 6.35643e-05
8 bidir_out[5] bidir_sl[36] 5.87561e-06
9 bidir_cs[23] bidir_out[5] 0
10 bidir_ie[8] bidir_out[5] 0.00012396
11 bidir_oe[18] bidir_out[5] 0.000465634
12 bidir_oe[19] bidir_out[5] 0.000141821
13 bidir_out[36] bidir_out[5] 0.000588308
*RES
1 *25004:ZN bidir_out[5] 21.062 
*END

*D_NET *199 0.00238147
*CONN
*P bidir_out[6] O
*I *25005:ZN O *D gf180mcu_fd_sc_mcu7t5v0__tiel
*CAP
1 bidir_out[6] 0.000391111
2 *25005:ZN 0.000391111
3 bidir_out[6] bidir_pd[13] 0.000491562
4 bidir_out[6] bidir_pd[19] 0.000192331
5 bidir_out[6] bidir_pu[37] 0.000432086
6 bidir_out[6] bidir_sl[23] 5.83359e-05
7 bidir_cs[12] bidir_out[6] 0.000424937
*RES
1 *25005:ZN bidir_out[6] 14.0974 
*END

*D_NET *200 0.00367457
*CONN
*P bidir_out[7] O
*I *25006:ZN O *D gf180mcu_fd_sc_mcu7t5v0__tiel
*CAP
1 bidir_out[7] 0.000496421
2 *25006:ZN 0.000496421
3 bidir_out[7] bidir_pd[1] 0.000326528
4 bidir_out[7] bidir_pu[33] 0.00115241
5 bidir_ie[17] bidir_out[7] 0
6 bidir_oe[25] bidir_out[7] 0.000101977
7 bidir_oe[29] bidir_out[7] 0.00108486
8 bidir_oe[30] bidir_out[7] 1.5961e-05
*RES
1 *25006:ZN bidir_out[7] 21.8654 
*END

*D_NET *201 0.00193828
*CONN
*P bidir_out[8] O
*I *25007:ZN O *D gf180mcu_fd_sc_mcu7t5v0__tiel
*CAP
1 bidir_out[8] 0.000384978
2 *25007:ZN 0.000384978
3 bidir_out[8] bidir_pd[23] 0.000424937
4 bidir_out[8] bidir_pd[32] 0
5 bidir_out[8] bidir_sl[21] 0.000421318
6 bidir_cs[18] bidir_out[8] 0.00013405
7 bidir_ie[10] bidir_out[8] 0.000188022
*RES
1 *25007:ZN bidir_out[8] 13.4134 
*END

*D_NET *202 0.00128741
*CONN
*P bidir_out[9] O
*I *25008:ZN O *D gf180mcu_fd_sc_mcu7t5v0__tiel
*CAP
1 bidir_out[9] 0.000159955
2 *25008:ZN 0.000159955
3 bidir_out[9] bidir_pd[7] 0.00048878
4 bidir_out[9] bidir_sl[32] 0.000478723
*RES
1 *25008:ZN bidir_out[9] 12.0454 
*END

*D_NET *203 0.00340851
*CONN
*P bidir_pd[0] O
*I *25009:ZN O *D gf180mcu_fd_sc_mcu7t5v0__tiel
*CAP
1 bidir_pd[0] 0.0004061
2 *25009:ZN 0.0004061
3 bidir_pd[0] bidir_pd[3] 0.000826896
4 bidir_pd[0] bidir_pd[4] 0.000222333
5 bidir_pd[0] bidir_pu[0] 0.00025111
6 bidir_pd[0] bidir_pu[38] 0.00129597
7 bidir_cs[34] bidir_pd[0] 0
*RES
1 *25009:ZN bidir_pd[0] 21.5614 
*END

*D_NET *204 0.00245227
*CONN
*P bidir_pd[10] O
*I *25011:ZN O *D gf180mcu_fd_sc_mcu7t5v0__tiel
*CAP
1 bidir_pd[10] 0.00119039
2 *25011:ZN 0.00119039
3 bidir_pd[10] bidir_pu[35] 7.14831e-05
*RES
1 *25011:ZN bidir_pd[10] 28.884 
*END

*D_NET *205 0.0018449
*CONN
*P bidir_pd[11] O
*I *25012:ZN O *D gf180mcu_fd_sc_mcu7t5v0__tiel
*CAP
1 bidir_pd[11] 0.000334404
2 *25012:ZN 0.000334404
3 bidir_pd[11] bidir_pu[30] 0.000464008
4 bidir_pd[11] bidir_sl[15] 0.000104033
5 bidir_pd[11] bidir_sl[26] 2.40463e-05
6 bidir_pd[11] bidir_sl[32] 0
7 bidir_cs[9] bidir_pd[11] 8.94407e-05
8 bidir_oe[15] bidir_pd[11] 2.91078e-05
9 bidir_oe[17] bidir_pd[11] 0.000456858
10 bidir_oe[23] bidir_pd[11] 8.59272e-06
*RES
1 *25012:ZN bidir_pd[11] 13.4134 
*END

*D_NET *206 0.00245475
*CONN
*P bidir_pd[12] O
*I *25013:ZN O *D gf180mcu_fd_sc_mcu7t5v0__tiel
*CAP
1 bidir_pd[12] 0.000414378
2 *25013:ZN 0.000414378
3 bidir_pd[12] bidir_pu[13] 0.000647044
4 bidir_pd[12] bidir_pu[23] 0.000105706
5 bidir_pd[12] bidir_sl[25] 0.000552093
6 bidir_ie[12] bidir_pd[12] 4.02804e-05
7 bidir_oe[9] bidir_pd[12] 0.000199573
8 bidir_out[39] bidir_pd[12] 8.12946e-05
*RES
1 *25013:ZN bidir_pd[12] 14.7054 
*END

*D_NET *207 0.0027553
*CONN
*P bidir_pd[13] O
*I *25014:ZN O *D gf180mcu_fd_sc_mcu7t5v0__tiel
*CAP
1 bidir_pd[13] 0.000304667
2 *25014:ZN 0.000304667
3 bidir_pd[13] bidir_pd[35] 1.59828e-05
4 bidir_pd[13] bidir_pu[34] 0.000110823
5 bidir_pd[13] bidir_pu[37] 5.14116e-06
6 bidir_pd[13] bidir_sl[10] 0.000307495
7 bidir_pd[13] bidir_sl[23] 0.000300938
8 bidir_ie[15] bidir_pd[13] 0.000450021
9 bidir_out[34] bidir_pd[13] 0.000464008
10 bidir_out[6] bidir_pd[13] 0.000491562
*RES
1 *25014:ZN bidir_pd[13] 14.4774 
*END

*D_NET *208 0.00509377
*CONN
*P bidir_pd[14] O
*I *25015:ZN O *D gf180mcu_fd_sc_mcu7t5v0__tiel
*CAP
1 bidir_pd[14] 0.000252063
2 *25015:ZN 0.000252063
3 bidir_pd[14] bidir_pd[22] 0.000487378
4 bidir_pd[14] bidir_pu[32] 0.00059786
5 bidir_pd[14] bidir_sl[12] 0.00145106
6 bidir_pd[14] bidir_sl[36] 0.00014878
7 bidir_cs[23] bidir_pd[14] 0.00113156
8 bidir_ie[5] bidir_pd[14] 1.97747e-05
9 bidir_oe[18] bidir_pd[14] 0.000482312
10 bidir_out[36] bidir_pd[14] 0.000222378
11 bidir_out[5] bidir_pd[14] 4.85394e-05
*RES
1 *25015:ZN bidir_pd[14] 21.746 
*END

*D_NET *209 0.00235805
*CONN
*P bidir_pd[15] O
*I *25016:ZN O *D gf180mcu_fd_sc_mcu7t5v0__tiel
*CAP
1 bidir_pd[15] 0.000416005
2 *25016:ZN 0.000416005
3 bidir_pd[15] bidir_sl[19] 0.000796314
4 bidir_cs[10] bidir_pd[15] 0.000636469
5 bidir_cs[7] bidir_pd[15] 9.32583e-05
*RES
1 *25016:ZN bidir_pd[15] 14.6294 
*END

*D_NET *210 0.00270529
*CONN
*P bidir_pd[16] O
*I *25017:ZN O *D gf180mcu_fd_sc_mcu7t5v0__tiel
*CAP
1 bidir_pd[16] 0.000429187
2 *25017:ZN 0.000429187
3 bidir_pd[16] bidir_pd[8] 0.00109883
4 bidir_cs[16] bidir_pd[16] 1.47088e-05
5 bidir_cs[28] bidir_pd[16] 0.000330145
6 bidir_oe[27] bidir_pd[16] 0.000308026
7 bidir_oe[32] bidir_pd[16] 4.85471e-05
8 bidir_oe[5] bidir_pd[16] 4.66599e-05
*RES
1 *25017:ZN bidir_pd[16] 11.074 
*END

*D_NET *211 0.00445115
*CONN
*P bidir_pd[17] O
*I *25018:ZN O *D gf180mcu_fd_sc_mcu7t5v0__tiel
*CAP
1 bidir_pd[17] 0.000239211
2 *25018:ZN 0.000239211
3 bidir_pd[17] bidir_pd[30] 0.000390205
4 bidir_ie[22] bidir_pd[17] 0.00159259
5 bidir_ie[36] bidir_pd[17] 0.000390205
6 bidir_oe[0] bidir_pd[17] 0.00159973
*RES
1 *25018:ZN bidir_pd[17] 20.378 
*END

*D_NET *212 0.00165488
*CONN
*P bidir_pd[18] O
*I *25019:ZN O *D gf180mcu_fd_sc_mcu7t5v0__tiel
*CAP
1 bidir_pd[18] 0.000250024
2 *25019:ZN 0.000250024
3 bidir_pd[18] bidir_pu[26] 0.000520448
4 bidir_ie[35] bidir_pd[18] 1.91917e-06
5 bidir_out[23] bidir_pd[18] 5.69191e-05
6 bidir_out[38] bidir_pd[18] 0.000112509
7 bidir_out[4] bidir_pd[18] 0.000463041
*RES
1 *25019:ZN bidir_pd[18] 13.0334 
*END

*D_NET *213 0.00207613
*CONN
*P bidir_pd[19] O
*I *25020:ZN O *D gf180mcu_fd_sc_mcu7t5v0__tiel
*CAP
1 bidir_pd[19] 0.000483828
2 *25020:ZN 0.000483828
3 bidir_pd[19] bidir_sl[19] 0.000393015
4 bidir_pd[19] bidir_sl[23] 0.000122965
5 bidir_cs[10] bidir_pd[19] 0
6 bidir_cs[7] bidir_pd[19] 0.000400164
7 bidir_out[6] bidir_pd[19] 0.000192331
*RES
1 *25020:ZN bidir_pd[19] 14.0974 
*END

*D_NET *214 0.00447476
*CONN
*P bidir_pd[1] O
*I *25010:ZN O *D gf180mcu_fd_sc_mcu7t5v0__tiel
*CAP
1 bidir_pd[1] 0.000284615
2 *25010:ZN 0.000284615
3 bidir_pd[1] bidir_pd[3] 0.000372137
4 bidir_pd[1] bidir_pu[33] 0
5 bidir_pd[1] bidir_sl[22] 7.95952e-05
6 bidir_pd[1] bidir_sl[2] 0.000736349
7 bidir_cs[5] bidir_pd[1] 2.41598e-05
8 bidir_ie[17] bidir_pd[1] 0.00156092
9 bidir_oe[29] bidir_pd[1] 1.10835e-05
10 bidir_oe[30] bidir_pd[1] 9.16934e-05
11 bidir_oe[7] bidir_pd[1] 0.000687105
12 bidir_out[22] bidir_pd[1] 1.5961e-05
13 bidir_out[7] bidir_pd[1] 0.000326528
*RES
1 *25010:ZN bidir_pd[1] 21.7134 
*END

*D_NET *215 0.00343051
*CONN
*P bidir_pd[20] O
*I *25022:ZN O *D gf180mcu_fd_sc_mcu7t5v0__tiel
*CAP
1 bidir_pd[20] 0.000403669
2 *25022:ZN 0.000403669
3 bidir_pd[20] bidir_pu[18] 0.00061886
4 bidir_pd[20] bidir_pu[31] 1.56182e-05
5 bidir_oe[34] bidir_pd[20] 0.00029252
6 bidir_oe[39] bidir_pd[20] 0.000406855
7 bidir_oe[8] bidir_pd[20] 0.00128932
*RES
1 *25022:ZN bidir_pd[20] 11.454 
*END

*D_NET *216 0.00344803
*CONN
*P bidir_pd[21] O
*I *25023:ZN O *D gf180mcu_fd_sc_mcu7t5v0__tiel
*CAP
1 bidir_pd[21] 0.000496858
2 *25023:ZN 0.000496858
3 bidir_pd[21] bidir_sl[31] 0.000379959
4 bidir_pd[21] *448:I 0.000848846
5 bidir_pd[21] *324:5 0.00120072
6 bidir_oe[0] bidir_pd[21] 2.47965e-05
*RES
1 *25023:ZN bidir_pd[21] 11.378 
*END

*D_NET *217 0.00377547
*CONN
*P bidir_pd[22] O
*I *25024:ZN O *D gf180mcu_fd_sc_mcu7t5v0__tiel
*CAP
1 bidir_pd[22] 0.000533743
2 *25024:ZN 0.000533743
3 bidir_pd[22] bidir_pu[32] 7.41459e-05
4 bidir_pd[22] bidir_sl[12] 0.000592061
5 bidir_pd[22] bidir_sl[27] 0.000548578
6 bidir_pd[22] bidir_sl[28] 0.000172444
7 bidir_pd[22] input_pu 8.40497e-05
8 bidir_ie[5] bidir_pd[22] 0.000143897
9 bidir_oe[18] bidir_pd[22] 3.75951e-05
10 bidir_out[5] bidir_pd[22] 0.00056783
11 bidir_pd[14] bidir_pd[22] 0.000487378
*RES
1 *25024:ZN bidir_pd[22] 21.746 
*END

*D_NET *218 0.00205633
*CONN
*P bidir_pd[23] O
*I *25025:ZN O *D gf180mcu_fd_sc_mcu7t5v0__tiel
*CAP
1 bidir_pd[23] 0.000310544
2 *25025:ZN 0.000310544
3 bidir_pd[23] bidir_sl[13] 0.000862308
4 bidir_pd[23] bidir_sl[21] 9.77249e-05
5 bidir_ie[39] bidir_pd[23] 0
6 bidir_oe[16] bidir_pd[23] 5.02724e-05
7 bidir_out[8] bidir_pd[23] 0.000424937
*RES
1 *25025:ZN bidir_pd[23] 14.0214 
*END

*D_NET *219 0.00335578
*CONN
*P bidir_pd[24] O
*I *25026:ZN O *D gf180mcu_fd_sc_mcu7t5v0__tiel
*CAP
1 bidir_pd[24] 0.000453551
2 *25026:ZN 0.000453551
3 bidir_pd[24] bidir_pd[4] 7.83779e-05
4 bidir_pd[24] bidir_sl[14] 0.0001717
5 bidir_pd[24] bidir_sl[2] 0.00121544
6 bidir_ie[17] bidir_pd[24] 1.43775e-05
7 bidir_oe[37] bidir_pd[24] 1.56182e-05
8 bidir_oe[7] bidir_pd[24] 0.000953163
*RES
1 *25026:ZN bidir_pd[24] 21.4094 
*END

*D_NET *220 0.00402618
*CONN
*P bidir_pd[25] O
*I *25027:ZN O *D gf180mcu_fd_sc_mcu7t5v0__tiel
*CAP
1 bidir_pd[25] 0.000511611
2 *25027:ZN 0.000511611
3 bidir_pd[25] bidir_pu[16] 1.47088e-05
4 bidir_pd[25] bidir_pu[17] 0.000330516
5 bidir_pd[25] bidir_pu[27] 0.000817368
6 bidir_pd[25] bidir_pu[9] 0.000263863
7 bidir_pd[25] bidir_sl[17] 5.63519e-05
8 bidir_pd[25] bidir_sl[5] 0.000176826
9 bidir_ie[8] bidir_pd[25] 0.000560139
10 bidir_oe[19] bidir_pd[25] 0.000783185
*RES
1 *25027:ZN bidir_pd[25] 21.29 
*END

*D_NET *221 0.00327585
*CONN
*P bidir_pd[26] O
*I *25028:ZN O *D gf180mcu_fd_sc_mcu7t5v0__tiel
*CAP
1 bidir_pd[26] 0.000421152
2 *25028:ZN 0.000421152
3 bidir_pd[26] bidir_pd[6] 0.00120991
4 bidir_cs[11] bidir_pd[26] 9.26705e-05
5 bidir_cs[2] bidir_pd[26] 0.000180382
6 bidir_cs[35] bidir_pd[26] 0.000934628
7 bidir_oe[10] bidir_pd[26] 1.5961e-05
*RES
1 *25028:ZN bidir_pd[26] 21.4094 
*END

*D_NET *222 0.00422623
*CONN
*P bidir_pd[27] O
*I *25029:ZN O *D gf180mcu_fd_sc_mcu7t5v0__tiel
*CAP
1 bidir_pd[27] 0.000618601
2 *25029:ZN 0.000618601
3 bidir_pd[27] bidir_pd[36] 0.000989975
4 bidir_oe[24] bidir_pd[27] 0.0013545
5 bidir_oe[26] bidir_pd[27] 0.000576267
6 bidir_oe[5] bidir_pd[27] 6.82842e-05
*RES
1 *25029:ZN bidir_pd[27] 13.43 
*END

*D_NET *223 0.00332868
*CONN
*P bidir_pd[28] O
*I *25030:ZN O *D gf180mcu_fd_sc_mcu7t5v0__tiel
*CAP
1 bidir_pd[28] 0.000466519
2 *25030:ZN 0.000466519
3 bidir_pd[28] bidir_pd[9] 0.000267531
4 bidir_pd[28] bidir_pu[24] 0.000356867
5 bidir_pd[28] bidir_sl[39] 1.95729e-05
6 bidir_pd[28] bidir_sl[6] 0.000935306
7 bidir_cs[38] bidir_pd[28] 0.000240056
8 bidir_oe[13] bidir_pd[28] 0.000576308
*RES
1 *25030:ZN bidir_pd[28] 20.758 
*END

*D_NET *224 0.00221155
*CONN
*P bidir_pd[29] O
*I *25031:ZN O *D gf180mcu_fd_sc_mcu7t5v0__tiel
*CAP
1 bidir_pd[29] 0.000885324
2 *25031:ZN 0.000885324
3 bidir_pd[29] bidir_pd[8] 0.000149966
4 bidir_cs[16] bidir_pd[29] 0.000149966
5 bidir_cs[28] bidir_pd[29] 0.00014097
*RES
1 *25031:ZN bidir_pd[29] 20.378 
*END

*D_NET *225 0.00305058
*CONN
*P bidir_pd[2] O
*I *25021:ZN O *D gf180mcu_fd_sc_mcu7t5v0__tiel
*CAP
1 bidir_pd[2] 0.00102955
2 *25021:ZN 0.00102955
3 bidir_pd[2] bidir_pu[8] 0.00099149
*RES
1 *25021:ZN bidir_pd[2] 20.6494 
*END

*D_NET *226 0.00269542
*CONN
*P bidir_pd[30] O
*I *25033:ZN O *D gf180mcu_fd_sc_mcu7t5v0__tiel
*CAP
1 bidir_pd[30] 0.000320349
2 *25033:ZN 0.000320349
3 bidir_ie[22] bidir_pd[30] 0.00112957
4 bidir_ie[36] bidir_pd[30] 0.000169562
5 bidir_oe[0] bidir_pd[30] 4.38802e-05
6 bidir_oe[33] bidir_pd[30] 0.000321511
7 bidir_pd[17] bidir_pd[30] 0.000390205
*RES
1 *25033:ZN bidir_pd[30] 11.074 
*END

*D_NET *227 0.00327325
*CONN
*P bidir_pd[31] O
*I *25034:ZN O *D gf180mcu_fd_sc_mcu7t5v0__tiel
*CAP
1 bidir_pd[31] 0.000437156
2 *25034:ZN 0.000437156
3 bidir_pd[31] bidir_pu[21] 0.000159427
4 bidir_pd[31] bidir_sl[24] 0.00123974
5 bidir_pd[31] bidir_sl[4] 0.000983808
6 bidir_cs[11] bidir_pd[31] 1.5961e-05
7 bidir_oe[21] bidir_pd[31] 0
*RES
1 *25034:ZN bidir_pd[31] 21.4094 
*END

*D_NET *228 0.00178522
*CONN
*P bidir_pd[32] O
*I *25035:ZN O *D gf180mcu_fd_sc_mcu7t5v0__tiel
*CAP
1 bidir_pd[32] 0.000237464
2 *25035:ZN 0.000237464
3 bidir_pd[32] bidir_sl[13] 0.000670777
4 bidir_cs[14] bidir_pd[32] 3.08902e-05
5 bidir_ie[10] bidir_pd[32] 0.000535604
6 bidir_ie[39] bidir_pd[32] 7.30256e-05
7 bidir_out[8] bidir_pd[32] 0
*RES
1 *25035:ZN bidir_pd[32] 13.2614 
*END

*D_NET *229 0.00374174
*CONN
*P bidir_pd[33] O
*I *25036:ZN O *D gf180mcu_fd_sc_mcu7t5v0__tiel
*CAP
1 bidir_pd[33] 0.000351618
2 *25036:ZN 0.000351618
3 bidir_pd[33] bidir_pu[6] 0.000142642
4 bidir_cs[17] bidir_pd[33] 0.000579767
5 bidir_cs[37] bidir_pd[33] 0.000928159
6 bidir_oe[22] bidir_pd[33] 0.000420235
7 bidir_oe[34] bidir_pd[33] 0.000935297
8 bidir_oe[8] bidir_pd[33] 3.24083e-05
*RES
1 *25036:ZN bidir_pd[33] 19.77 
*END

*D_NET *230 0.0026335
*CONN
*P bidir_pd[34] O
*I *25037:ZN O *D gf180mcu_fd_sc_mcu7t5v0__tiel
*CAP
1 bidir_pd[34] 0.000419332
2 *25037:ZN 0.000419332
3 bidir_pd[34] bidir_pu[22] 6.84759e-05
4 bidir_pd[34] bidir_pu[23] 9.58084e-05
5 bidir_pd[34] bidir_pu[34] 0.000517978
6 bidir_pd[34] bidir_pu[37] 9.06738e-05
7 bidir_pd[34] bidir_pu[3] 6.82848e-05
8 bidir_pd[34] bidir_pu[4] 0.00067169
9 bidir_pd[34] bidir_sl[25] 8.55327e-05
10 bidir_out[34] bidir_pd[34] 0.000196389
*RES
1 *25037:ZN bidir_pd[34] 15.0094 
*END

*D_NET *231 0.00236449
*CONN
*P bidir_pd[35] O
*I *25038:ZN O *D gf180mcu_fd_sc_mcu7t5v0__tiel
*CAP
1 bidir_pd[35] 0.00026359
2 *25038:ZN 0.00026359
3 bidir_pd[35] bidir_pu[37] 0.000429161
4 bidir_pd[35] bidir_sl[23] 0.0006011
5 bidir_cs[7] bidir_pd[35] 9.58084e-05
6 bidir_ie[32] bidir_pd[35] 0.00063646
7 bidir_out[26] bidir_pd[35] 5.87975e-05
8 bidir_pd[13] bidir_pd[35] 1.59828e-05
*RES
1 *25038:ZN bidir_pd[35] 14.0974 
*END

*D_NET *232 0.00427774
*CONN
*P bidir_pd[36] O
*I *25039:ZN O *D gf180mcu_fd_sc_mcu7t5v0__tiel
*CAP
1 bidir_pd[36] 0.000343941
2 *25039:ZN 0.000343941
3 bidir_pd[36] bidir_pu[10] 6.05381e-05
4 bidir_cs[39] bidir_pd[36] 0.000470049
5 bidir_ie[20] bidir_pd[36] 0.000107266
6 bidir_oe[26] bidir_pd[36] 0.00139773
7 bidir_oe[27] bidir_pd[36] 0.000324241
8 bidir_out[28] bidir_pd[36] 0.000240056
9 bidir_pd[27] bidir_pd[36] 0.000989975
*RES
1 *25039:ZN bidir_pd[36] 20.986 
*END

*D_NET *233 0.00325972
*CONN
*P bidir_pd[37] O
*I *25040:ZN O *D gf180mcu_fd_sc_mcu7t5v0__tiel
*CAP
1 bidir_pd[37] 0.000393134
2 *25040:ZN 0.000393134
3 bidir_pd[37] bidir_sl[29] 8.18373e-05
4 bidir_pd[37] bidir_sl[37] 0.000909303
5 bidir_cs[35] bidir_pd[37] 0.000431423
6 bidir_ie[6] bidir_pd[37] 0.000103782
7 bidir_oe[10] bidir_pd[37] 0.000909303
8 bidir_oe[31] bidir_pd[37] 3.78032e-05
*RES
1 *25040:ZN bidir_pd[37] 20.7254 
*END

*D_NET *234 0.00369444
*CONN
*P bidir_pd[38] O
*I *25041:ZN O *D gf180mcu_fd_sc_mcu7t5v0__tiel
*CAP
1 bidir_pd[38] 0.000536031
2 *25041:ZN 0.000536031
3 bidir_pd[38] bidir_pu[15] 5.68442e-05
4 bidir_pd[38] bidir_pu[29] 0.00102539
5 bidir_pd[38] bidir_sl[20] 0.000333179
6 bidir_pd[38] bidir_sl[33] 0.000487987
7 bidir_cs[15] bidir_pd[38] 7.73532e-05
8 bidir_out[33] bidir_pd[38] 0.000124309
9 bidir_out[35] bidir_pd[38] 0.000410348
10 bidir_out[3] bidir_pd[38] 0.000106965
*RES
1 *25041:ZN bidir_pd[38] 12.366 
*END

*D_NET *235 0.00158061
*CONN
*P bidir_pd[39] O
*I *25042:ZN O *D gf180mcu_fd_sc_mcu7t5v0__tiel
*CAP
1 bidir_pd[39] 0.000250876
2 *25042:ZN 0.000250876
3 bidir_pd[39] bidir_pu[19] 6.18275e-06
4 bidir_pd[39] bidir_pu[26] 0.000118601
5 bidir_cs[32] bidir_pd[39] 0.000456858
6 bidir_cs[3] bidir_pd[39] 0.000450021
7 bidir_oe[2] bidir_pd[39] 4.72007e-05
*RES
1 *25042:ZN bidir_pd[39] 12.7294 
*END

*D_NET *236 0.0034325
*CONN
*P bidir_pd[3] O
*I *25032:ZN O *D gf180mcu_fd_sc_mcu7t5v0__tiel
*CAP
1 bidir_pd[3] 0.000610154
2 *25032:ZN 0.000610154
3 bidir_pd[3] bidir_pu[0] 0.000819214
4 bidir_pd[3] bidir_sl[2] 0.000164236
5 bidir_cs[34] bidir_pd[3] 0
6 bidir_oe[7] bidir_pd[3] 2.97126e-05
7 bidir_pd[0] bidir_pd[3] 0.000826896
8 bidir_pd[1] bidir_pd[3] 0.000372137
*RES
1 *25032:ZN bidir_pd[3] 21.4854 
*END

*D_NET *237 0.00371428
*CONN
*P bidir_pd[4] O
*I *25043:ZN O *D gf180mcu_fd_sc_mcu7t5v0__tiel
*CAP
1 bidir_pd[4] 0.000370229
2 *25043:ZN 0.000370229
3 bidir_pd[4] bidir_pu[0] 0.00122568
4 bidir_pd[4] bidir_sl[14] 0.000222378
5 bidir_cs[34] bidir_pd[4] 0
6 bidir_oe[30] bidir_pd[4] 0.00117099
7 bidir_oe[37] bidir_pd[4] 5.40596e-05
8 bidir_pd[0] bidir_pd[4] 0.000222333
9 bidir_pd[24] bidir_pd[4] 7.83779e-05
*RES
1 *25043:ZN bidir_pd[4] 21.6374 
*END

*D_NET *238 0.00315512
*CONN
*P bidir_pd[5] O
*I *25044:ZN O *D gf180mcu_fd_sc_mcu7t5v0__tiel
*CAP
1 bidir_pd[5] 0.00032895
2 *25044:ZN 0.00032895
3 bidir_pd[5] bidir_sl[24] 1.47056e-05
4 bidir_pd[5] input_pd 8.08741e-05
5 bidir_cs[24] bidir_pd[5] 0.00124955
6 bidir_oe[21] bidir_pd[5] 0.0010099
7 bidir_out[21] bidir_pd[5] 1.47056e-05
8 bidir_out[29] bidir_pd[5] 0.000127484
*RES
1 *25044:ZN bidir_pd[5] 11.7254 
*END

*D_NET *239 0.00307158
*CONN
*P bidir_pd[6] O
*I *25045:ZN O *D gf180mcu_fd_sc_mcu7t5v0__tiel
*CAP
1 bidir_pd[6] 0.000361551
2 *25045:ZN 0.000361551
3 bidir_pd[6] bidir_pu[21] 1.98468e-05
4 bidir_cs[11] bidir_pd[6] 0.000152288
5 bidir_cs[2] bidir_pd[6] 9.56442e-06
6 bidir_ie[28] bidir_pd[6] 0.000956869
7 bidir_pd[26] bidir_pd[6] 0.00120991
*RES
1 *25045:ZN bidir_pd[6] 11.7254 
*END

*D_NET *240 0.00201878
*CONN
*P bidir_pd[7] O
*I *25046:ZN O *D gf180mcu_fd_sc_mcu7t5v0__tiel
*CAP
1 bidir_pd[7] 0.000369659
2 *25046:ZN 0.000369659
3 bidir_pd[7] bidir_sl[32] 0.000112755
4 bidir_ie[14] bidir_pd[7] 0.000677926
5 bidir_ie[31] bidir_pd[7] 0
6 bidir_out[9] bidir_pd[7] 0.00048878
*RES
1 *25046:ZN bidir_pd[7] 14.3254 
*END

*D_NET *241 0.00292078
*CONN
*P bidir_pd[8] O
*I *25047:ZN O *D gf180mcu_fd_sc_mcu7t5v0__tiel
*CAP
1 bidir_pd[8] 0.00057379
2 *25047:ZN 0.00057379
3 bidir_pd[8] *341:8 0
4 bidir_cs[16] bidir_pd[8] 0.00019869
5 bidir_oe[32] bidir_pd[8] 0.000325715
6 bidir_pd[16] bidir_pd[8] 0.00109883
7 bidir_pd[29] bidir_pd[8] 0.000149966
*RES
1 *25047:ZN bidir_pd[8] 20.91 
*END

*D_NET *242 0.00346303
*CONN
*P bidir_pd[9] O
*I *25048:ZN O *D gf180mcu_fd_sc_mcu7t5v0__tiel
*CAP
1 bidir_pd[9] 0.0004558
2 *25048:ZN 0.0004558
3 bidir_pd[9] bidir_pu[24] 1.11891e-05
4 bidir_pd[9] bidir_pu[27] 9.77471e-05
5 bidir_pd[9] bidir_pu[9] 1.11891e-05
6 bidir_pd[9] bidir_sl[39] 0.00025983
7 bidir_cs[38] bidir_pd[9] 0.000734637
8 bidir_ie[38] bidir_pd[9] 0.000584655
9 bidir_oe[28] bidir_pd[9] 0.000584655
10 bidir_pd[28] bidir_pd[9] 0.000267531
*RES
1 *25048:ZN bidir_pd[9] 20.834 
*END

*D_NET *243 0.00327848
*CONN
*P bidir_pu[0] O
*I *25049:ZN O *D gf180mcu_fd_sc_mcu7t5v0__tiel
*CAP
1 bidir_pu[0] 0.000477609
2 *25049:ZN 0.000477609
3 bidir_pu[0] bidir_pu[38] 1.28836e-05
4 bidir_oe[37] bidir_pu[0] 1.43775e-05
5 bidir_pd[0] bidir_pu[0] 0.00025111
6 bidir_pd[3] bidir_pu[0] 0.000819214
7 bidir_pd[4] bidir_pu[0] 0.00122568
*RES
1 *25049:ZN bidir_pu[0] 21.4094 
*END

*D_NET *244 0.00380806
*CONN
*P bidir_pu[10] O
*I *25051:ZN O *D gf180mcu_fd_sc_mcu7t5v0__tiel
*CAP
1 bidir_pu[10] 0.000437019
2 *25051:ZN 0.000437019
3 bidir_cs[20] bidir_pu[10] 0.000355403
4 bidir_cs[39] bidir_pu[10] 0.00121002
5 bidir_ie[20] bidir_pu[10] 0.000412912
6 bidir_ie[29] bidir_pu[10] 0
7 bidir_ie[4] bidir_pu[10] 0.000335011
8 bidir_oe[20] bidir_pu[10] 0.000560139
9 bidir_pd[36] bidir_pu[10] 6.05381e-05
*RES
1 *25051:ZN bidir_pu[10] 20.986 
*END

*D_NET *245 0.0049568
*CONN
*P bidir_pu[11] O
*I *25052:ZN O *D gf180mcu_fd_sc_mcu7t5v0__tiel
*CAP
1 bidir_pu[11] 0.00031935
2 *25052:ZN 0.00031935
3 bidir_pu[11] bidir_pu[29] 0.000394434
4 bidir_pu[11] bidir_sl[27] 0.000467485
5 bidir_pu[11] bidir_sl[28] 0.000901106
6 bidir_pu[11] input_pu 0.000484639
7 bidir_oe[3] bidir_pu[11] 0.000459785
8 bidir_out[27] bidir_pu[11] 0.00161065
*RES
1 *25052:ZN bidir_pu[11] 21.29 
*END

*D_NET *246 0.00119898
*CONN
*P bidir_pu[12] O
*I *25053:ZN O *D gf180mcu_fd_sc_mcu7t5v0__tiel
*CAP
1 bidir_pu[12] 0.000146052
2 *25053:ZN 0.000146052
3 bidir_ie[14] bidir_pu[12] 0.000450021
4 bidir_out[11] bidir_pu[12] 0.000456858
*RES
1 *25053:ZN bidir_pu[12] 11.8174 
*END

*D_NET *247 0.00209019
*CONN
*P bidir_pu[13] O
*I *25054:ZN O *D gf180mcu_fd_sc_mcu7t5v0__tiel
*CAP
1 bidir_pu[13] 0.000310218
2 *25054:ZN 0.000310218
3 bidir_pu[13] bidir_sl[1] 0.00055037
4 bidir_pu[13] bidir_sl[25] 0.000109577
5 bidir_oe[1] bidir_pu[13] 0.000148524
6 bidir_oe[9] bidir_pu[13] 1.42418e-05
7 bidir_pd[12] bidir_pu[13] 0.000647044
*RES
1 *25054:ZN bidir_pu[13] 13.7934 
*END

*D_NET *248 0.00363583
*CONN
*P bidir_pu[14] O
*I *25055:ZN O *D gf180mcu_fd_sc_mcu7t5v0__tiel
*CAP
1 bidir_pu[14] 0.000290488
2 *25055:ZN 0.000290488
3 bidir_pu[14] bidir_sl[3] 0.00124803
4 bidir_cs[34] bidir_pu[14] 0
5 bidir_out[10] bidir_pu[14] 0.000284714
6 bidir_out[1] bidir_pu[14] 0.00152211
*RES
1 *25055:ZN bidir_pu[14] 20.8014 
*END

*D_NET *249 0.00369077
*CONN
*P bidir_pu[15] O
*I *25056:ZN O *D gf180mcu_fd_sc_mcu7t5v0__tiel
*CAP
1 bidir_pu[15] 0.000514654
2 *25056:ZN 0.000514654
3 bidir_pu[15] bidir_sl[33] 0.00111352
4 bidir_cs[15] bidir_pu[15] 0.000768381
5 bidir_ie[16] bidir_pu[15] 0.000450265
6 bidir_ie[3] bidir_pu[15] 0.000224128
7 bidir_out[35] bidir_pu[15] 4.83197e-05
8 bidir_out[3] bidir_pu[15] 0
9 bidir_pd[38] bidir_pu[15] 5.68442e-05
*RES
1 *25056:ZN bidir_pu[15] 21.29 
*END

*D_NET *250 0.00459775
*CONN
*P bidir_pu[16] O
*I *25057:ZN O *D gf180mcu_fd_sc_mcu7t5v0__tiel
*CAP
1 bidir_pu[16] 0.000572677
2 *25057:ZN 0.000572677
3 bidir_pu[16] bidir_pu[17] 0.000998472
4 bidir_pu[16] bidir_pu[32] 0.00110723
5 bidir_pu[16] bidir_pu[9] 8.55327e-05
6 bidir_pu[16] bidir_sl[36] 4.84531e-05
7 bidir_pu[16] bidir_sl[5] 0.000200138
8 bidir_oe[19] bidir_pu[16] 0.000240056
9 bidir_out[36] bidir_pu[16] 0.000757808
10 bidir_pd[25] bidir_pu[16] 1.47088e-05
*RES
1 *25057:ZN bidir_pu[16] 21.29 
*END

*D_NET *251 0.00463196
*CONN
*P bidir_pu[17] O
*I *25058:ZN O *D gf180mcu_fd_sc_mcu7t5v0__tiel
*CAP
1 bidir_pu[17] 0.000498387
2 *25058:ZN 0.000498387
3 bidir_pu[17] bidir_pu[27] 0.000986034
4 bidir_pu[17] bidir_sl[17] 0.000199473
5 bidir_pu[17] bidir_sl[36] 0.000174758
6 bidir_ie[13] bidir_pu[17] 0.000637419
7 bidir_ie[8] bidir_pu[17] 0.000207683
8 bidir_oe[19] bidir_pu[17] 9.47849e-05
9 bidir_out[36] bidir_pu[17] 6.04444e-06
10 bidir_pd[25] bidir_pu[17] 0.000330516
11 bidir_pu[16] bidir_pu[17] 0.000998472
*RES
1 *25058:ZN bidir_pu[17] 21.746 
*END

*D_NET *252 0.00338101
*CONN
*P bidir_pu[18] O
*I *25059:ZN O *D gf180mcu_fd_sc_mcu7t5v0__tiel
*CAP
1 bidir_pu[18] 0.00041596
2 *25059:ZN 0.00041596
3 bidir_pu[18] bidir_pu[31] 0.000352567
4 bidir_cs[37] bidir_pu[18] 0
5 bidir_oe[34] bidir_pu[18] 0.000560139
6 bidir_oe[39] bidir_pu[18] 0.00101752
7 bidir_pd[20] bidir_pu[18] 0.00061886
*RES
1 *25059:ZN bidir_pu[18] 20.378 
*END

*D_NET *253 0.00173109
*CONN
*P bidir_pu[19] O
*I *25060:ZN O *D gf180mcu_fd_sc_mcu7t5v0__tiel
*CAP
1 bidir_pu[19] 0.000242195
2 *25060:ZN 0.000242195
3 bidir_pu[19] bidir_pu[26] 2.9378e-06
4 bidir_cs[32] bidir_pu[19] 0.00062932
5 bidir_cs[36] bidir_pu[19] 5.69191e-05
6 bidir_cs[3] bidir_pu[19] 3.08902e-05
7 bidir_oe[2] bidir_pu[19] 0.000520448
8 bidir_pd[39] bidir_pu[19] 6.18275e-06
*RES
1 *25060:ZN bidir_pu[19] 13.0334 
*END

*D_NET *254 0.00229729
*CONN
*P bidir_pu[1] O
*I *25050:ZN O *D gf180mcu_fd_sc_mcu7t5v0__tiel
*CAP
1 bidir_pu[1] 0.000510266
2 *25050:ZN 0.000510266
3 bidir_pu[1] bidir_pu[36] 4.25807e-05
4 bidir_cs[1] bidir_pu[1] 5.02724e-05
5 bidir_cs[30] bidir_pu[1] 0.000456858
6 bidir_cs[36] bidir_pu[1] 0
7 bidir_oe[12] bidir_pu[1] 9.77316e-05
8 bidir_out[18] bidir_pu[1] 0.00062932
*RES
1 *25050:ZN bidir_pu[1] 15.2374 
*END

*D_NET *255 0.00322112
*CONN
*P bidir_pu[20] O
*I *25062:ZN O *D gf180mcu_fd_sc_mcu7t5v0__tiel
*CAP
1 bidir_pu[20] 0.000282296
2 *25062:ZN 0.000282296
3 bidir_pu[20] bidir_sl[11] 0.00136823
4 bidir_ie[33] bidir_pu[20] 0.00128831
*RES
1 *25062:ZN bidir_pu[20] 20.6494 
*END

*D_NET *256 0.00307991
*CONN
*P bidir_pu[21] O
*I *25063:ZN O *D gf180mcu_fd_sc_mcu7t5v0__tiel
*CAP
1 bidir_pu[21] 0.000339508
2 *25063:ZN 0.000339508
3 bidir_pu[21] bidir_sl[24] 9.56442e-06
4 bidir_pu[21] bidir_sl[4] 0.000983808
5 bidir_cs[11] bidir_pu[21] 0.00122825
6 bidir_pd[31] bidir_pu[21] 0.000159427
7 bidir_pd[6] bidir_pu[21] 1.98468e-05
*RES
1 *25063:ZN bidir_pu[21] 11.7254 
*END

*D_NET *257 0.00197774
*CONN
*P bidir_pu[22] O
*I *25064:ZN O *D gf180mcu_fd_sc_mcu7t5v0__tiel
*CAP
1 bidir_pu[22] 0.000284307
2 *25064:ZN 0.000284307
3 bidir_pu[22] bidir_pu[34] 0.000508773
4 bidir_pu[22] bidir_pu[3] 0.000793494
5 bidir_pu[22] bidir_pu[4] 3.83782e-05
6 bidir_ie[15] bidir_pu[22] 0
7 bidir_pd[34] bidir_pu[22] 6.84759e-05
*RES
1 *25064:ZN bidir_pu[22] 13.7174 
*END

*D_NET *258 0.00231375
*CONN
*P bidir_pu[23] O
*I *25065:ZN O *D gf180mcu_fd_sc_mcu7t5v0__tiel
*CAP
1 bidir_pu[23] 0.000267
2 *25065:ZN 0.000267
3 bidir_pu[23] bidir_pu[34] 2.00448e-05
4 bidir_pu[23] bidir_pu[4] 0.000124316
5 bidir_pu[23] bidir_sl[10] 0.000368242
6 bidir_pu[23] bidir_sl[25] 0.000429161
7 bidir_out[16] bidir_pu[23] 0.000636469
8 bidir_out[39] bidir_pu[23] 0
9 bidir_pd[12] bidir_pu[23] 0.000105706
10 bidir_pd[34] bidir_pu[23] 9.58084e-05
*RES
1 *25065:ZN bidir_pu[23] 14.0974 
*END

*D_NET *259 0.00386628
*CONN
*P bidir_pu[24] O
*I *25066:ZN O *D gf180mcu_fd_sc_mcu7t5v0__tiel
*CAP
1 bidir_pu[24] 0.000361967
2 *25066:ZN 0.000361967
3 bidir_pu[24] bidir_pu[35] 0.000572629
4 bidir_pu[24] bidir_sl[39] 0.000592346
5 bidir_pu[24] bidir_sl[6] 0.00106504
6 bidir_cs[38] bidir_pu[24] 6.91944e-05
7 bidir_ie[9] bidir_pu[24] 0.000327591
8 bidir_oe[13] bidir_pu[24] 4.99886e-05
9 bidir_oe[35] bidir_pu[24] 9.75016e-05
10 bidir_pd[28] bidir_pu[24] 0.000356867
11 bidir_pd[9] bidir_pu[24] 1.11891e-05
*RES
1 *25066:ZN bidir_pu[24] 20.834 
*END

*D_NET *260 0.00196043
*CONN
*P bidir_pu[25] O
*I *25067:ZN O *D gf180mcu_fd_sc_mcu7t5v0__tiel
*CAP
1 bidir_pu[25] 0.000357427
2 *25067:ZN 0.000357427
3 bidir_pu[25] bidir_pu[28] 4.72007e-05
4 bidir_pu[25] bidir_sl[21] 2.9378e-06
5 bidir_cs[18] bidir_pu[25] 0.000118601
6 bidir_cs[29] bidir_pu[25] 0.000511167
7 bidir_cs[8] bidir_pu[25] 0.000520448
8 bidir_ie[23] bidir_pu[25] 4.52231e-05
*RES
1 *25067:ZN bidir_pu[25] 13.6414 
*END

*D_NET *261 0.00196043
*CONN
*P bidir_pu[26] O
*I *25068:ZN O *D gf180mcu_fd_sc_mcu7t5v0__tiel
*CAP
1 bidir_pu[26] 0.000357427
2 *25068:ZN 0.000357427
3 bidir_cs[3] bidir_pu[26] 4.52231e-05
4 bidir_out[23] bidir_pu[26] 0.000511167
5 bidir_out[4] bidir_pu[26] 4.72007e-05
6 bidir_pd[18] bidir_pu[26] 0.000520448
7 bidir_pd[39] bidir_pu[26] 0.000118601
8 bidir_pu[19] bidir_pu[26] 2.9378e-06
*RES
1 *25068:ZN bidir_pu[26] 13.6414 
*END

*D_NET *262 0.00425684
*CONN
*P bidir_pu[27] O
*I *25069:ZN O *D gf180mcu_fd_sc_mcu7t5v0__tiel
*CAP
1 bidir_pu[27] 0.000472814
2 *25069:ZN 0.000472814
3 bidir_pu[27] bidir_pu[9] 0.000671105
4 bidir_pu[27] bidir_sl[17] 0.00021404
5 bidir_pu[27] bidir_sl[7] 0.000187687
6 bidir_cs[38] bidir_pu[27] 1.11891e-05
7 bidir_ie[13] bidir_pu[27] 0.000118105
8 bidir_ie[8] bidir_pu[27] 2.79375e-05
9 bidir_oe[4] bidir_pu[27] 0.000179996
10 bidir_pd[25] bidir_pu[27] 0.000817368
11 bidir_pd[9] bidir_pu[27] 9.77471e-05
12 bidir_pu[17] bidir_pu[27] 0.000986034
*RES
1 *25069:ZN bidir_pu[27] 20.91 
*END

*D_NET *263 0.00158061
*CONN
*P bidir_pu[28] O
*I *25070:ZN O *D gf180mcu_fd_sc_mcu7t5v0__tiel
*CAP
1 bidir_pu[28] 0.000250876
2 *25070:ZN 0.000250876
3 bidir_cs[8] bidir_pu[28] 6.18275e-06
4 bidir_ie[0] bidir_pu[28] 0.000456858
5 bidir_ie[1] bidir_pu[28] 0.000118601
6 bidir_out[14] bidir_pu[28] 0.000450021
7 bidir_pu[25] bidir_pu[28] 4.72007e-05
*RES
1 *25070:ZN bidir_pu[28] 12.7294 
*END

*D_NET *264 0.0049577
*CONN
*P bidir_pu[29] O
*I *25071:ZN O *D gf180mcu_fd_sc_mcu7t5v0__tiel
*CAP
1 bidir_pu[29] 0.000329842
2 *25071:ZN 0.000329842
3 bidir_pu[29] bidir_sl[20] 0
4 bidir_pu[29] bidir_sl[28] 1.11891e-05
5 bidir_pu[29] input_pu 0.000449068
6 bidir_cs[22] bidir_pu[29] 0
7 bidir_ie[3] bidir_pu[29] 0.000470935
8 bidir_out[27] bidir_pu[29] 0.000449897
9 bidir_out[33] bidir_pu[29] 0.00146983
10 bidir_out[3] bidir_pu[29] 2.72719e-05
11 bidir_pd[38] bidir_pu[29] 0.00102539
12 bidir_pu[11] bidir_pu[29] 0.000394434
*RES
1 *25071:ZN bidir_pu[29] 21.442 
*END

*D_NET *265 0.0033367
*CONN
*P bidir_pu[2] O
*I *25061:ZN O *D gf180mcu_fd_sc_mcu7t5v0__tiel
*CAP
1 bidir_pu[2] 0.000461429
2 *25061:ZN 0.000461429
3 bidir_pu[2] bidir_sl[29] 0.000235364
4 bidir_cs[0] bidir_pu[2] 0.00121952
5 bidir_cs[6] bidir_pu[2] 1.23313e-05
6 bidir_ie[21] bidir_pu[2] 0
7 bidir_out[2] bidir_pu[2] 0.000946622
*RES
1 *25061:ZN bidir_pu[2] 12.3334 
*END

*D_NET *266 0.00181349
*CONN
*P bidir_pu[30] O
*I *25073:ZN O *D gf180mcu_fd_sc_mcu7t5v0__tiel
*CAP
1 bidir_pu[30] 0.000261509
2 *25073:ZN 0.000261509
3 bidir_pu[30] bidir_sl[15] 0.000450021
4 bidir_cs[9] bidir_pu[30] 1.88647e-06
5 bidir_oe[15] bidir_pu[30] 0.000304421
6 bidir_oe[9] bidir_pu[30] 7.01367e-05
7 bidir_pd[11] bidir_pu[30] 0.000464008
*RES
1 *25073:ZN bidir_pu[30] 12.8814 
*END

*D_NET *267 0.00284912
*CONN
*P bidir_pu[31] O
*I *25074:ZN O *D gf180mcu_fd_sc_mcu7t5v0__tiel
*CAP
1 bidir_pu[31] 0.000436942
2 *25074:ZN 0.000436942
3 bidir_cs[21] bidir_pu[31] 0.00110908
4 bidir_ie[4] bidir_pu[31] 0.000420235
5 bidir_oe[39] bidir_pu[31] 6.30303e-05
6 bidir_out[25] bidir_pu[31] 1.47088e-05
7 bidir_pd[20] bidir_pu[31] 1.56182e-05
8 bidir_pu[18] bidir_pu[31] 0.000352567
*RES
1 *25074:ZN bidir_pu[31] 11.454 
*END

*D_NET *268 0.00377694
*CONN
*P bidir_pu[32] O
*I *25075:ZN O *D gf180mcu_fd_sc_mcu7t5v0__tiel
*CAP
1 bidir_pu[32] 0.000504244
2 *25075:ZN 0.000504244
3 bidir_pu[32] bidir_sl[12] 5.79715e-05
4 bidir_pu[32] bidir_sl[28] 1.11891e-05
5 bidir_pu[32] bidir_sl[36] 3.71904e-05
6 bidir_ie[13] bidir_pu[32] 4.84492e-05
7 bidir_ie[5] bidir_pu[32] 7.41459e-05
8 bidir_ie[8] bidir_pu[32] 0.000237951
9 bidir_oe[19] bidir_pu[32] 1.6747e-05
10 bidir_out[36] bidir_pu[32] 0.000278195
11 bidir_out[5] bidir_pu[32] 0.000227377
12 bidir_pd[14] bidir_pu[32] 0.00059786
13 bidir_pd[22] bidir_pu[32] 7.41459e-05
14 bidir_pu[16] bidir_pu[32] 0.00110723
*RES
1 *25075:ZN bidir_pu[32] 21.138 
*END

*D_NET *269 0.003427
*CONN
*P bidir_pu[33] O
*I *25076:ZN O *D gf180mcu_fd_sc_mcu7t5v0__tiel
*CAP
1 bidir_pu[33] 0.00058659
2 *25076:ZN 0.00058659
3 bidir_pu[33] bidir_sl[22] 3.28763e-06
4 bidir_pu[33] bidir_sl[2] 8.55242e-05
5 bidir_cs[5] bidir_pu[33] 5.79329e-05
6 bidir_ie[17] bidir_pu[33] 6.80238e-06
7 bidir_oe[25] bidir_pu[33] 0
8 bidir_oe[29] bidir_pu[33] 0.000151005
9 bidir_out[0] bidir_pu[33] 0.000796866
10 bidir_out[7] bidir_pu[33] 0.00115241
11 bidir_pd[1] bidir_pu[33] 0
*RES
1 *25076:ZN bidir_pu[33] 21.8654 
*END

*D_NET *270 0.00255164
*CONN
*P bidir_pu[34] O
*I *25077:ZN O *D gf180mcu_fd_sc_mcu7t5v0__tiel
*CAP
1 bidir_pu[34] 0.000384797
2 *25077:ZN 0.000384797
3 bidir_pu[34] bidir_sl[10] 0.000491031
4 bidir_out[34] bidir_pu[34] 0.000113348
5 bidir_out[39] bidir_pu[34] 2.00448e-05
6 bidir_pd[13] bidir_pu[34] 0.000110823
7 bidir_pd[34] bidir_pu[34] 0.000517978
8 bidir_pu[22] bidir_pu[34] 0.000508773
9 bidir_pu[23] bidir_pu[34] 2.00448e-05
*RES
1 *25077:ZN bidir_pu[34] 14.4774 
*END

*D_NET *271 0.0037047
*CONN
*P bidir_pu[35] O
*I *25078:ZN O *D gf180mcu_fd_sc_mcu7t5v0__tiel
*CAP
1 bidir_pu[35] 0.000849449
2 *25078:ZN 0.000849449
3 bidir_ie[9] bidir_pu[35] 0.000340951
4 bidir_oe[13] bidir_pu[35] 0.00102074
5 bidir_pd[10] bidir_pu[35] 7.14831e-05
6 bidir_pu[24] bidir_pu[35] 0.000572629
*RES
1 *25078:ZN bidir_pu[35] 20.796 
*END

*D_NET *272 0.00180932
*CONN
*P bidir_pu[36] O
*I *25079:ZN O *D gf180mcu_fd_sc_mcu7t5v0__tiel
*CAP
1 bidir_pu[36] 0.000116827
2 *25079:ZN 0.000116827
3 bidir_cs[36] bidir_pu[36] 0.000862308
4 bidir_oe[12] bidir_pu[36] 0.000670777
5 bidir_pu[1] bidir_pu[36] 4.25807e-05
*RES
1 *25079:ZN bidir_pu[36] 13.4134 
*END

*D_NET *273 0.0028794
*CONN
*P bidir_pu[37] O
*I *25080:ZN O *D gf180mcu_fd_sc_mcu7t5v0__tiel
*CAP
1 bidir_pu[37] 0.000437925
2 *25080:ZN 0.000437925
3 bidir_pu[37] bidir_pu[3] 2.17248e-05
4 bidir_cs[12] bidir_pu[37] 0.000122171
5 bidir_cs[7] bidir_pu[37] 8.55327e-05
6 bidir_ie[15] bidir_pu[37] 0.000703612
7 bidir_ie[32] bidir_pu[37] 4.01007e-05
8 bidir_out[34] bidir_pu[37] 7.33509e-05
9 bidir_out[6] bidir_pu[37] 0.000432086
10 bidir_pd[13] bidir_pu[37] 5.14116e-06
11 bidir_pd[34] bidir_pu[37] 9.06738e-05
12 bidir_pd[35] bidir_pu[37] 0.000429161
*RES
1 *25080:ZN bidir_pu[37] 15.3894 
*END

*D_NET *274 0.00331213
*CONN
*P bidir_pu[38] O
*I *25081:ZN O *D gf180mcu_fd_sc_mcu7t5v0__tiel
*CAP
1 bidir_pu[38] 0.000410943
2 *25081:ZN 0.000410943
3 bidir_pu[38] bidir_sl[3] 0.000177806
4 bidir_cs[34] bidir_pu[38] 0.00100358
5 bidir_pd[0] bidir_pu[38] 0.00129597
6 bidir_pu[0] bidir_pu[38] 1.28836e-05
*RES
1 *25081:ZN bidir_pu[38] 21.4094 
*END

*D_NET *275 0.00264578
*CONN
*P bidir_pu[39] O
*I *25082:ZN O *D gf180mcu_fd_sc_mcu7t5v0__tiel
*CAP
1 bidir_pu[39] 0.000463012
2 *25082:ZN 0.000463012
3 bidir_pu[39] bidir_pu[6] 0
4 bidir_oe[11] bidir_pu[39] 0.00110908
5 bidir_oe[22] bidir_pu[39] 0.000355913
6 bidir_oe[34] bidir_pu[39] 1.47088e-05
7 bidir_oe[8] bidir_pu[39] 0.000240056
*RES
1 *25082:ZN bidir_pu[39] 11.074 
*END

*D_NET *276 0.00238381
*CONN
*P bidir_pu[3] O
*I *25072:ZN O *D gf180mcu_fd_sc_mcu7t5v0__tiel
*CAP
1 bidir_pu[3] 0.000406318
2 *25072:ZN 0.000406318
3 bidir_ie[15] bidir_pu[3] 5.11999e-05
4 bidir_out[34] bidir_pu[3] 0.000636469
5 bidir_pd[34] bidir_pu[3] 6.82848e-05
6 bidir_pu[22] bidir_pu[3] 0.000793494
7 bidir_pu[37] bidir_pu[3] 2.17248e-05
*RES
1 *25072:ZN bidir_pu[3] 14.6294 
*END

*D_NET *277 0.00212305
*CONN
*P bidir_pu[4] O
*I *25083:ZN O *D gf180mcu_fd_sc_mcu7t5v0__tiel
*CAP
1 bidir_pu[4] 0.000445442
2 *25083:ZN 0.000445442
3 bidir_pu[4] bidir_sl[0] 0
4 bidir_pu[4] bidir_sl[10] 0.000361093
5 bidir_out[16] bidir_pu[4] 3.66858e-05
6 bidir_pd[34] bidir_pu[4] 0.00067169
7 bidir_pu[22] bidir_pu[4] 3.83782e-05
8 bidir_pu[23] bidir_pu[4] 0.000124316
*RES
1 *25083:ZN bidir_pu[4] 14.6294 
*END

*D_NET *278 0.00180932
*CONN
*P bidir_pu[5] O
*I *25084:ZN O *D gf180mcu_fd_sc_mcu7t5v0__tiel
*CAP
1 bidir_pu[5] 0.000116827
2 *25084:ZN 0.000116827
3 bidir_cs[1] bidir_pu[5] 0.000862308
4 bidir_ie[0] bidir_pu[5] 4.25807e-05
5 bidir_out[14] bidir_pu[5] 0.000670777
*RES
1 *25084:ZN bidir_pu[5] 13.4134 
*END

*D_NET *279 0.00349133
*CONN
*P bidir_pu[6] O
*I *25085:ZN O *D gf180mcu_fd_sc_mcu7t5v0__tiel
*CAP
1 bidir_pu[6] 0.000334234
2 *25085:ZN 0.000334234
3 bidir_pu[6] *448:I 1.47088e-05
4 bidir_cs[17] bidir_pu[6] 0.00148418
5 bidir_oe[22] bidir_pu[6] 7.22665e-05
6 bidir_out[19] bidir_pu[6] 0.00110907
7 bidir_pd[33] bidir_pu[6] 0.000142642
8 bidir_pu[39] bidir_pu[6] 0
*RES
1 *25085:ZN bidir_pu[6] 11.074 
*END

*D_NET *280 0.00294866
*CONN
*P bidir_pu[7] O
*I *25086:ZN O *D gf180mcu_fd_sc_mcu7t5v0__tiel
*CAP
1 bidir_pu[7] 0.000356422
2 *25086:ZN 0.000356422
3 bidir_pu[7] bidir_sl[34] 0
4 bidir_cs[24] bidir_pu[7] 0.000975082
5 bidir_ie[27] bidir_pu[7] 7.98484e-05
6 bidir_oe[21] bidir_pu[7] 9.51353e-05
7 bidir_out[21] bidir_pu[7] 0.000943566
8 bidir_out[29] bidir_pu[7] 0.000142185
*RES
1 *25086:ZN bidir_pu[7] 20.3454 
*END

*D_NET *281 0.00278471
*CONN
*P bidir_pu[8] O
*I *25087:ZN O *D gf180mcu_fd_sc_mcu7t5v0__tiel
*CAP
1 bidir_pu[8] 0.00037809
2 *25087:ZN 0.00037809
3 bidir_ie[34] bidir_pu[8] 0.00099149
4 bidir_out[20] bidir_pu[8] 4.55526e-05
5 bidir_pd[2] bidir_pu[8] 0.00099149
*RES
1 *25087:ZN bidir_pu[8] 11.3454 
*END

*D_NET *282 0.0040658
*CONN
*P bidir_pu[9] O
*I *25088:ZN O *D gf180mcu_fd_sc_mcu7t5v0__tiel
*CAP
1 bidir_pu[9] 0.000541116
2 *25088:ZN 0.000541116
3 bidir_pu[9] bidir_sl[5] 0.00133206
4 bidir_ie[38] bidir_pu[9] 0.00019977
5 bidir_oe[19] bidir_pu[9] 0.000212578
6 bidir_oe[28] bidir_pu[9] 0.000207471
7 bidir_pd[25] bidir_pu[9] 0.000263863
8 bidir_pd[9] bidir_pu[9] 1.11891e-05
9 bidir_pu[16] bidir_pu[9] 8.55327e-05
10 bidir_pu[27] bidir_pu[9] 0.000671105
*RES
1 *25088:ZN bidir_pu[9] 20.91 
*END

*D_NET *283 0.00198825
*CONN
*P bidir_sl[0] O
*I *25089:ZN O *D gf180mcu_fd_sc_mcu7t5v0__tiel
*CAP
1 bidir_sl[0] 0.000330317
2 *25089:ZN 0.000330317
3 bidir_sl[0] bidir_sl[25] 0.000138284
4 bidir_out[16] bidir_sl[0] 0.000796314
5 bidir_out[39] bidir_sl[0] 0.000393015
6 bidir_pu[4] bidir_sl[0] 0
*RES
1 *25089:ZN bidir_sl[0] 13.7174 
*END

*D_NET *284 0.00284726
*CONN
*P bidir_sl[10] O
*I *25091:ZN O *D gf180mcu_fd_sc_mcu7t5v0__tiel
*CAP
1 bidir_sl[10] 0.000346548
2 *25091:ZN 0.000346548
3 bidir_out[39] bidir_sl[10] 0.000626302
4 bidir_pd[13] bidir_sl[10] 0.000307495
5 bidir_pu[23] bidir_sl[10] 0.000368242
6 bidir_pu[34] bidir_sl[10] 0.000491031
7 bidir_pu[4] bidir_sl[10] 0.000361093
*RES
1 *25091:ZN bidir_sl[10] 14.4774 
*END

*D_NET *285 0.00329954
*CONN
*P bidir_sl[11] O
*I *25092:ZN O *D gf180mcu_fd_sc_mcu7t5v0__tiel
*CAP
1 bidir_sl[11] 0.000312742
2 *25092:ZN 0.000312742
3 bidir_ie[26] bidir_sl[11] 9.56442e-06
4 bidir_ie[33] bidir_sl[11] 2.7805e-05
5 bidir_oe[14] bidir_sl[11] 0.00126846
6 bidir_pu[20] bidir_sl[11] 0.00136823
*RES
1 *25092:ZN bidir_sl[11] 12.2574 
*END

*D_NET *286 0.00484795
*CONN
*P bidir_sl[12] O
*I *25093:ZN O *D gf180mcu_fd_sc_mcu7t5v0__tiel
*CAP
1 bidir_sl[12] 0.000281084
2 *25093:ZN 0.000281084
3 bidir_sl[12] bidir_sl[36] 1.11891e-05
4 bidir_cs[33] bidir_sl[12] 0.000475995
5 bidir_ie[5] bidir_sl[12] 0.00130891
6 bidir_oe[18] bidir_sl[12] 0.000368231
7 bidir_out[5] bidir_sl[12] 2.03665e-05
8 bidir_pd[14] bidir_sl[12] 0.00145106
9 bidir_pd[22] bidir_sl[12] 0.000592061
10 bidir_pu[32] bidir_sl[12] 5.79715e-05
*RES
1 *25093:ZN bidir_sl[12] 21.29 
*END

*D_NET *287 0.00180932
*CONN
*P bidir_sl[13] O
*I *25094:ZN O *D gf180mcu_fd_sc_mcu7t5v0__tiel
*CAP
1 bidir_sl[13] 0.000116827
2 *25094:ZN 0.000116827
3 bidir_ie[39] bidir_sl[13] 4.25807e-05
4 bidir_pd[23] bidir_sl[13] 0.000862308
5 bidir_pd[32] bidir_sl[13] 0.000670777
*RES
1 *25094:ZN bidir_sl[13] 13.4134 
*END

*D_NET *288 0.0036121
*CONN
*P bidir_sl[14] O
*I *25095:ZN O *D gf180mcu_fd_sc_mcu7t5v0__tiel
*CAP
1 bidir_sl[14] 0.000398253
2 *25095:ZN 0.000398253
3 bidir_sl[14] bidir_sl[2] 0.000222333
4 bidir_oe[30] bidir_sl[14] 1.08028e-05
5 bidir_oe[37] bidir_sl[14] 0.00123522
6 bidir_oe[7] bidir_sl[14] 0.000953163
7 bidir_pd[24] bidir_sl[14] 0.0001717
8 bidir_pd[4] bidir_sl[14] 0.000222378
*RES
1 *25095:ZN bidir_sl[14] 21.5614 
*END

*D_NET *289 0.0018664
*CONN
*P bidir_sl[15] O
*I *25096:ZN O *D gf180mcu_fd_sc_mcu7t5v0__tiel
*CAP
1 bidir_sl[15] 0.000333622
2 *25096:ZN 0.000333622
3 bidir_sl[15] bidir_sl[1] 0
4 bidir_cs[9] bidir_sl[15] 0.00063646
5 bidir_oe[1] bidir_sl[15] 8.64281e-06
6 bidir_pd[11] bidir_sl[15] 0.000104033
7 bidir_pu[30] bidir_sl[15] 0.000450021
*RES
1 *25096:ZN bidir_sl[15] 13.7174 
*END

*D_NET *290 0.00271198
*CONN
*P bidir_sl[16] O
*I *25097:ZN O *D gf180mcu_fd_sc_mcu7t5v0__tiel
*CAP
1 bidir_sl[16] 0.000281805
2 *25097:ZN 0.000281805
3 bidir_cs[27] bidir_sl[16] 7.98484e-05
4 bidir_ie[19] bidir_sl[16] 0.000956869
5 bidir_out[15] bidir_sl[16] 0.000154785
6 bidir_out[20] bidir_sl[16] 0.000956869
*RES
1 *25097:ZN bidir_sl[16] 19.5094 
*END

*D_NET *291 0.00341819
*CONN
*P bidir_sl[17] O
*I *25098:ZN O *D gf180mcu_fd_sc_mcu7t5v0__tiel
*CAP
1 bidir_sl[17] 0.000629384
2 *25098:ZN 0.000629384
3 bidir_sl[17] bidir_sl[5] 0.000262408
4 bidir_ie[13] bidir_sl[17] 0.000609944
5 bidir_ie[8] bidir_sl[17] 0.000199565
6 bidir_oe[4] bidir_sl[17] 0
7 bidir_out[32] bidir_sl[17] 0.000617635
8 bidir_pd[25] bidir_sl[17] 5.63519e-05
9 bidir_pu[17] bidir_sl[17] 0.000199473
10 bidir_pu[27] bidir_sl[17] 0.00021404
*RES
1 *25098:ZN bidir_sl[17] 21.29 
*END

*D_NET *292 0.00249834
*CONN
*P bidir_sl[18] O
*I *25099:ZN O *D gf180mcu_fd_sc_mcu7t5v0__tiel
*CAP
1 bidir_sl[18] 0.00038638
2 *25099:ZN 0.00038638
3 bidir_cs[19] bidir_sl[18] 0
4 bidir_cs[31] bidir_sl[18] 0.000862791
5 bidir_ie[30] bidir_sl[18] 0.000862791
*RES
1 *25099:ZN bidir_sl[18] 10.694 
*END

*D_NET *293 0.00195592
*CONN
*P bidir_sl[19] O
*I *25100:ZN O *D gf180mcu_fd_sc_mcu7t5v0__tiel
*CAP
1 bidir_sl[19] 0.000305166
2 *25100:ZN 0.000305166
3 bidir_cs[7] bidir_sl[19] 0.000117881
4 bidir_out[26] bidir_sl[19] 3.83782e-05
5 bidir_pd[15] bidir_sl[19] 0.000796314
6 bidir_pd[19] bidir_sl[19] 0.000393015
*RES
1 *25100:ZN bidir_sl[19] 13.7174 
*END

*D_NET *294 0.00219986
*CONN
*P bidir_sl[1] O
*I *25090:ZN O *D gf180mcu_fd_sc_mcu7t5v0__tiel
*CAP
1 bidir_sl[1] 0.000563414
2 *25090:ZN 0.000563414
3 bidir_sl[1] bidir_sl[25] 3.04815e-05
4 bidir_ie[12] bidir_sl[1] 0.000367708
5 bidir_oe[1] bidir_sl[1] 0.00012447
6 bidir_pu[13] bidir_sl[1] 0.00055037
7 bidir_sl[15] bidir_sl[1] 0
*RES
1 *25090:ZN bidir_sl[1] 14.3254 
*END

*D_NET *295 0.00393931
*CONN
*P bidir_sl[20] O
*I *25102:ZN O *D gf180mcu_fd_sc_mcu7t5v0__tiel
*CAP
1 bidir_sl[20] 0.000645434
2 *25102:ZN 0.000645434
3 bidir_sl[20] bidir_sl[27] 0.000420235
4 bidir_sl[20] bidir_sl[28] 0.000427927
5 bidir_sl[20] input_pu 0.000795882
6 bidir_ie[3] bidir_sl[20] 7.4118e-05
7 bidir_out[33] bidir_sl[20] 0.000205287
8 bidir_out[35] bidir_sl[20] 0.00022008
9 bidir_out[3] bidir_sl[20] 0.000171732
10 bidir_pd[38] bidir_sl[20] 0.000333179
11 bidir_pu[29] bidir_sl[20] 0
*RES
1 *25102:ZN bidir_sl[20] 21.518 
*END

*D_NET *296 0.0017077
*CONN
*P bidir_sl[21] O
*I *25103:ZN O *D gf180mcu_fd_sc_mcu7t5v0__tiel
*CAP
1 bidir_sl[21] 0.00025677
2 *25103:ZN 0.00025677
3 bidir_cs[18] bidir_sl[21] 1.1971e-05
4 bidir_ie[23] bidir_sl[21] 3.08902e-05
5 bidir_oe[16] bidir_sl[21] 0.00062932
6 bidir_out[8] bidir_sl[21] 0.000421318
7 bidir_pd[23] bidir_sl[21] 9.77249e-05
8 bidir_pu[25] bidir_sl[21] 2.9378e-06
*RES
1 *25103:ZN bidir_sl[21] 13.0334 
*END

*D_NET *297 0.00425364
*CONN
*P bidir_sl[22] O
*I *25104:ZN O *D gf180mcu_fd_sc_mcu7t5v0__tiel
*CAP
1 bidir_sl[22] 0.000386453
2 *25104:ZN 0.000386453
3 bidir_cs[26] bidir_sl[22] 8.62306e-05
4 bidir_cs[5] bidir_sl[22] 0.00156843
5 bidir_oe[25] bidir_sl[22] 0.000914109
6 bidir_out[0] bidir_sl[22] 2.75715e-05
7 bidir_out[22] bidir_sl[22] 0.000801517
8 bidir_pd[1] bidir_sl[22] 7.95952e-05
9 bidir_pu[33] bidir_sl[22] 3.28763e-06
*RES
1 *25104:ZN bidir_sl[22] 21.7894 
*END

*D_NET *298 0.00248145
*CONN
*P bidir_sl[23] O
*I *25105:ZN O *D gf180mcu_fd_sc_mcu7t5v0__tiel
*CAP
1 bidir_sl[23] 0.000401924
2 *25105:ZN 0.000401924
3 bidir_cs[10] bidir_sl[23] 9.02676e-05
4 bidir_cs[7] bidir_sl[23] 9.20566e-06
5 bidir_out[26] bidir_sl[23] 0.000494788
6 bidir_out[6] bidir_sl[23] 5.83359e-05
7 bidir_pd[13] bidir_sl[23] 0.000300938
8 bidir_pd[19] bidir_sl[23] 0.000122965
9 bidir_pd[35] bidir_sl[23] 0.0006011
*RES
1 *25105:ZN bidir_sl[23] 14.7054 
*END

*D_NET *299 0.00312471
*CONN
*P bidir_sl[24] O
*I *25106:ZN O *D gf180mcu_fd_sc_mcu7t5v0__tiel
*CAP
1 bidir_sl[24] 0.000306332
2 *25106:ZN 0.000306332
3 bidir_sl[24] input_pd 0.00124803
4 bidir_pd[31] bidir_sl[24] 0.00123974
5 bidir_pd[5] bidir_sl[24] 1.47056e-05
6 bidir_pu[21] bidir_sl[24] 9.56442e-06
*RES
1 *25106:ZN bidir_sl[24] 11.7254 
*END

*D_NET *300 0.00288841
*CONN
*P bidir_sl[25] O
*I *25107:ZN O *D gf180mcu_fd_sc_mcu7t5v0__tiel
*CAP
1 bidir_sl[25] 0.000509573
2 *25107:ZN 0.000509573
3 bidir_oe[1] bidir_sl[25] 9.06738e-05
4 bidir_out[16] bidir_sl[25] 3.32983e-05
5 bidir_out[39] bidir_sl[25] 0.000400164
6 bidir_pd[12] bidir_sl[25] 0.000552093
7 bidir_pd[34] bidir_sl[25] 8.55327e-05
8 bidir_pu[13] bidir_sl[25] 0.000109577
9 bidir_pu[23] bidir_sl[25] 0.000429161
10 bidir_sl[0] bidir_sl[25] 0.000138284
11 bidir_sl[1] bidir_sl[25] 3.04815e-05
*RES
1 *25107:ZN bidir_sl[25] 15.3894 
*END

*D_NET *301 0.00156363
*CONN
*P bidir_sl[26] O
*I *25108:ZN O *D gf180mcu_fd_sc_mcu7t5v0__tiel
*CAP
1 bidir_sl[26] 0.00022263
2 *25108:ZN 0.00022263
3 bidir_sl[26] bidir_sl[32] 6.44262e-05
4 bidir_oe[15] bidir_sl[26] 0.000543502
5 bidir_oe[23] bidir_sl[26] 0.000486394
6 bidir_pd[11] bidir_sl[26] 2.40463e-05
*RES
1 *25108:ZN bidir_sl[26] 12.8814 
*END

*D_NET *302 0.0033756
*CONN
*P bidir_sl[27] O
*I *25109:ZN O *D gf180mcu_fd_sc_mcu7t5v0__tiel
*CAP
1 bidir_sl[27] 0.000849624
2 *25109:ZN 0.000849624
3 bidir_sl[27] bidir_sl[28] 5.44227e-05
4 bidir_ie[5] bidir_sl[27] 1.1971e-05
5 bidir_oe[3] bidir_sl[27] 0.000173657
6 bidir_out[27] bidir_sl[27] 0
7 bidir_pd[22] bidir_sl[27] 0.000548578
8 bidir_pu[11] bidir_sl[27] 0.000467485
9 bidir_sl[20] bidir_sl[27] 0.000420235
*RES
1 *25109:ZN bidir_sl[27] 12.974 
*END

*D_NET *303 0.00394168
*CONN
*P bidir_sl[28] O
*I *25110:ZN O *D gf180mcu_fd_sc_mcu7t5v0__tiel
*CAP
1 bidir_sl[28] 0.000598311
2 *25110:ZN 0.000598311
3 bidir_sl[28] input_pu 0.000310356
4 bidir_cs[22] bidir_sl[28] 3.53241e-05
5 bidir_ie[5] bidir_sl[28] 0.000707734
6 bidir_oe[3] bidir_sl[28] 4.98028e-05
7 bidir_out[5] bidir_sl[28] 6.35643e-05
8 bidir_pd[22] bidir_sl[28] 0.000172444
9 bidir_pu[11] bidir_sl[28] 0.000901106
10 bidir_pu[29] bidir_sl[28] 1.11891e-05
11 bidir_pu[32] bidir_sl[28] 1.11891e-05
12 bidir_sl[20] bidir_sl[28] 0.000427927
13 bidir_sl[27] bidir_sl[28] 5.44227e-05
*RES
1 *25110:ZN bidir_sl[28] 21.746 
*END

*D_NET *304 0.0033339
*CONN
*P bidir_sl[29] O
*I *25111:ZN O *D gf180mcu_fd_sc_mcu7t5v0__tiel
*CAP
1 bidir_sl[29] 0.00048001
2 *25111:ZN 0.00048001
3 bidir_cs[6] bidir_sl[29] 0.000669064
4 bidir_ie[18] bidir_sl[29] 0
5 bidir_oe[31] bidir_sl[29] 0.000862725
6 bidir_out[2] bidir_sl[29] 0.000524891
7 bidir_pd[37] bidir_sl[29] 8.18373e-05
8 bidir_pu[2] bidir_sl[29] 0.000235364
*RES
1 *25111:ZN bidir_sl[29] 12.3334 
*END

*D_NET *305 0.00352587
*CONN
*P bidir_sl[2] O
*I *25101:ZN O *D gf180mcu_fd_sc_mcu7t5v0__tiel
*CAP
1 bidir_sl[2] 0.000387991
2 *25101:ZN 0.000387991
3 bidir_ie[17] bidir_sl[2] 0.000154483
4 bidir_oe[29] bidir_sl[2] 0.000104569
5 bidir_oe[30] bidir_sl[2] 6.69628e-05
6 bidir_pd[1] bidir_sl[2] 0.000736349
7 bidir_pd[24] bidir_sl[2] 0.00121544
8 bidir_pd[3] bidir_sl[2] 0.000164236
9 bidir_pu[33] bidir_sl[2] 8.55242e-05
10 bidir_sl[14] bidir_sl[2] 0.000222333
*RES
1 *25101:ZN bidir_sl[2] 21.6374 
*END

*D_NET *306 0.00549418
*CONN
*P bidir_sl[30] O
*I *25113:ZN O *D gf180mcu_fd_sc_mcu7t5v0__tiel
*CAP
1 bidir_sl[30] 0.000696039
2 *25113:ZN 0.000696039
3 bidir_sl[30] bidir_sl[3] 0.00197842
4 bidir_cs[34] bidir_sl[30] 0.00197842
5 bidir_out[10] bidir_sl[30] 0.000145251
*RES
1 *25113:ZN bidir_sl[30] 21.3714 
*END

*D_NET *307 0.00417603
*CONN
*P bidir_sl[31] O
*I *25114:ZN O *D gf180mcu_fd_sc_mcu7t5v0__tiel
*CAP
1 bidir_sl[31] 0.000397114
2 *25114:ZN 0.000397114
3 bidir_sl[31] *448:I 0.000173991
4 bidir_cs[17] bidir_sl[31] 0.000149966
5 bidir_oe[0] bidir_sl[31] 0.000107266
6 bidir_out[12] bidir_sl[31] 0.00098994
7 bidir_out[19] bidir_sl[31] 0.00158068
8 bidir_pd[21] bidir_sl[31] 0.000379959
*RES
1 *25114:ZN bidir_sl[31] 20.682 
*END

*D_NET *308 0.00148099
*CONN
*P bidir_sl[32] O
*I *25115:ZN O *D gf180mcu_fd_sc_mcu7t5v0__tiel
*CAP
1 bidir_sl[32] 0.00013997
2 *25115:ZN 0.00013997
3 bidir_oe[15] bidir_sl[32] 0.000545143
4 bidir_oe[17] bidir_sl[32] 0
5 bidir_out[9] bidir_sl[32] 0.000478723
6 bidir_pd[11] bidir_sl[32] 0
7 bidir_pd[7] bidir_sl[32] 0.000112755
8 bidir_sl[26] bidir_sl[32] 6.44262e-05
*RES
1 *25115:ZN bidir_sl[32] 12.8054 
*END

*D_NET *309 0.00453693
*CONN
*P bidir_sl[33] O
*I *25116:ZN O *D gf180mcu_fd_sc_mcu7t5v0__tiel
*CAP
1 bidir_sl[33] 0.000341804
2 *25116:ZN 0.000341804
3 bidir_cs[15] bidir_sl[33] 2.98131e-06
4 bidir_ie[16] bidir_sl[33] 0.00109982
5 bidir_ie[3] bidir_sl[33] 3.48497e-05
6 bidir_out[35] bidir_sl[33] 0.00111416
7 bidir_pd[38] bidir_sl[33] 0.000487987
8 bidir_pu[15] bidir_sl[33] 0.00111352
*RES
1 *25116:ZN bidir_sl[33] 21.442 
*END

*D_NET *310 0.00305607
*CONN
*P bidir_sl[34] O
*I *25117:ZN O *D gf180mcu_fd_sc_mcu7t5v0__tiel
*CAP
1 bidir_sl[34] 0.000380346
2 *25117:ZN 0.000380346
3 bidir_oe[6] bidir_sl[34] 0.000109702
4 bidir_out[21] bidir_sl[34] 0.00125105
5 bidir_out[29] bidir_sl[34] 0.000934628
6 bidir_pu[7] bidir_sl[34] 0
*RES
1 *25117:ZN bidir_sl[34] 20.8014 
*END

*D_NET *311 0.00199348
*CONN
*P bidir_sl[35] O
*I *25118:ZN O *D gf180mcu_fd_sc_mcu7t5v0__tiel
*CAP
1 bidir_sl[35] 0.000238084
2 *25118:ZN 0.000238084
3 bidir_cs[19] bidir_sl[35] 0.000174229
4 bidir_ie[30] bidir_sl[35] 0.000862791
5 bidir_oe[33] bidir_sl[35] 0.000480295
*RES
1 *25118:ZN bidir_sl[35] 9.478 
*END

*D_NET *312 0.00438182
*CONN
*P bidir_sl[36] O
*I *25119:ZN O *D gf180mcu_fd_sc_mcu7t5v0__tiel
*CAP
1 bidir_sl[36] 0.000378267
2 *25119:ZN 0.000378267
3 bidir_ie[8] bidir_sl[36] 0.000865432
4 bidir_oe[18] bidir_sl[36] 0.000953375
5 bidir_oe[19] bidir_sl[36] 0.000677704
6 bidir_out[36] bidir_sl[36] 0.000702525
7 bidir_out[5] bidir_sl[36] 5.87561e-06
8 bidir_pd[14] bidir_sl[36] 0.00014878
9 bidir_pu[16] bidir_sl[36] 4.84531e-05
10 bidir_pu[17] bidir_sl[36] 0.000174758
11 bidir_pu[32] bidir_sl[36] 3.71904e-05
12 bidir_sl[12] bidir_sl[36] 1.11891e-05
*RES
1 *25119:ZN bidir_sl[36] 21.746 
*END

*D_NET *313 0.00316343
*CONN
*P bidir_sl[37] O
*I *25120:ZN O *D gf180mcu_fd_sc_mcu7t5v0__tiel
*CAP
1 bidir_sl[37] 0.000389487
2 *25120:ZN 0.000389487
3 bidir_sl[37] bidir_sl[9] 0.00119789
4 bidir_cs[2] bidir_sl[37] 1.98468e-05
5 bidir_ie[18] bidir_sl[37] 1.47056e-05
6 bidir_ie[28] bidir_sl[37] 8.69862e-05
7 bidir_oe[10] bidir_sl[37] 0.000155721
8 bidir_pd[37] bidir_sl[37] 0.000909303
*RES
1 *25120:ZN bidir_sl[37] 11.9534 
*END

*D_NET *314 0.00313824
*CONN
*P bidir_sl[38] O
*I *25121:ZN O *D gf180mcu_fd_sc_mcu7t5v0__tiel
*CAP
1 bidir_sl[38] 0.000543478
2 *25121:ZN 0.000543478
3 bidir_sl[38] bidir_sl[39] 0
4 bidir_sl[38] bidir_sl[7] 0.00109882
5 bidir_oe[35] bidir_sl[38] 0.000117868
6 bidir_oe[4] bidir_sl[38] 0
7 bidir_out[17] bidir_sl[38] 0.000834598
*RES
1 *25121:ZN bidir_sl[38] 21.062 
*END

*D_NET *315 0.00323259
*CONN
*P bidir_sl[39] O
*I *25122:ZN O *D gf180mcu_fd_sc_mcu7t5v0__tiel
*CAP
1 bidir_sl[39] 0.000481264
2 *25122:ZN 0.000481264
3 bidir_sl[39] bidir_sl[7] 0.000224296
4 bidir_oe[28] bidir_sl[39] 9.53573e-05
5 bidir_oe[35] bidir_sl[39] 0.000894658
6 bidir_oe[4] bidir_sl[39] 9.88736e-06
7 bidir_out[17] bidir_sl[39] 0.000174115
8 bidir_pd[28] bidir_sl[39] 1.95729e-05
9 bidir_pd[9] bidir_sl[39] 0.00025983
10 bidir_pu[24] bidir_sl[39] 0.000592346
11 bidir_sl[38] bidir_sl[39] 0
*RES
1 *25122:ZN bidir_sl[39] 21.138 
*END

*D_NET *316 0.00420919
*CONN
*P bidir_sl[3] O
*I *25112:ZN O *D gf180mcu_fd_sc_mcu7t5v0__tiel
*CAP
1 bidir_sl[3] 0.000374458
2 *25112:ZN 0.000374458
3 bidir_cs[34] bidir_sl[3] 5.60139e-05
4 bidir_pu[14] bidir_sl[3] 0.00124803
5 bidir_pu[38] bidir_sl[3] 0.000177806
6 bidir_sl[30] bidir_sl[3] 0.00197842
*RES
1 *25112:ZN bidir_sl[3] 12.1814 
*END

*D_NET *317 0.00319868
*CONN
*P bidir_sl[4] O
*I *25123:ZN O *D gf180mcu_fd_sc_mcu7t5v0__tiel
*CAP
1 bidir_sl[4] 0.000352285
2 *25123:ZN 0.000352285
3 bidir_cs[11] bidir_sl[4] 0
4 bidir_ie[28] bidir_sl[4] 0.000458149
5 bidir_oe[21] bidir_sl[4] 6.83457e-05
6 bidir_pd[31] bidir_sl[4] 0.000983808
7 bidir_pu[21] bidir_sl[4] 0.000983808
*RES
1 *25123:ZN bidir_sl[4] 20.6494 
*END

*D_NET *318 0.00387422
*CONN
*P bidir_sl[5] O
*I *25124:ZN O *D gf180mcu_fd_sc_mcu7t5v0__tiel
*CAP
1 bidir_sl[5] 0.000606493
2 *25124:ZN 0.000606493
3 bidir_ie[13] bidir_sl[5] 0
4 bidir_ie[8] bidir_sl[5] 0.000689797
5 bidir_oe[19] bidir_sl[5] 0
6 bidir_pd[25] bidir_sl[5] 0.000176826
7 bidir_pu[16] bidir_sl[5] 0.000200138
8 bidir_pu[9] bidir_sl[5] 0.00133206
9 bidir_sl[17] bidir_sl[5] 0.000262408
*RES
1 *25124:ZN bidir_sl[5] 21.67 
*END

*D_NET *319 0.00346719
*CONN
*P bidir_sl[6] O
*I *25125:ZN O *D gf180mcu_fd_sc_mcu7t5v0__tiel
*CAP
1 bidir_sl[6] 0.000530988
2 *25125:ZN 0.000530988
3 bidir_ie[9] bidir_sl[6] 0.000404871
4 bidir_pd[28] bidir_sl[6] 0.000935306
5 bidir_pu[24] bidir_sl[6] 0.00106504
*RES
1 *25125:ZN bidir_sl[6] 19.77 
*END

*D_NET *320 0.0030174
*CONN
*P bidir_sl[7] O
*I *25126:ZN O *D gf180mcu_fd_sc_mcu7t5v0__tiel
*CAP
1 bidir_sl[7] 0.000417872
2 *25126:ZN 0.000417872
3 bidir_cs[38] bidir_sl[7] 0.00060443
4 bidir_oe[28] bidir_sl[7] 1.47088e-05
5 bidir_oe[35] bidir_sl[7] 1.47088e-05
6 bidir_oe[4] bidir_sl[7] 3.70016e-05
7 bidir_pu[27] bidir_sl[7] 0.000187687
8 bidir_sl[38] bidir_sl[7] 0.00109882
9 bidir_sl[39] bidir_sl[7] 0.000224296
*RES
1 *25126:ZN bidir_sl[7] 11.606 
*END

*D_NET *321 0.00238713
*CONN
*P bidir_sl[8] O
*I *25127:ZN O *D gf180mcu_fd_sc_mcu7t5v0__tiel
*CAP
1 bidir_sl[8] 0.000579882
2 *25127:ZN 0.000579882
3 bidir_cs[0] bidir_sl[8] 0
4 bidir_cs[6] bidir_sl[8] 4.93483e-05
5 bidir_ie[21] bidir_sl[8] 0.000952293
6 bidir_oe[36] bidir_sl[8] 7.09389e-05
7 bidir_out[2] bidir_sl[8] 0.000154785
*RES
1 *25127:ZN bidir_sl[8] 19.7374 
*END

*D_NET *322 0.00323301
*CONN
*P bidir_sl[9] O
*I *25128:ZN O *D gf180mcu_fd_sc_mcu7t5v0__tiel
*CAP
1 bidir_sl[9] 0.000415072
2 *25128:ZN 0.000415072
3 bidir_ie[18] bidir_sl[9] 0.000143388
4 bidir_ie[6] bidir_sl[9] 0.000964809
5 bidir_oe[10] bidir_sl[9] 8.55327e-05
6 bidir_oe[31] bidir_sl[9] 1.12495e-05
7 bidir_sl[37] bidir_sl[9] 0.00119789
*RES
1 *25128:ZN bidir_sl[9] 21.2574 
*END

*D_NET *323 0.0138661
*CONN
*P clk I
*I *439:I I *D gf180mcu_fd_sc_mcu7t5v0__antenna
*I *25225:I I *D gf180mcu_fd_sc_mcu7t5v0__clkbuf_16
*CAP
1 clk 0.0027254
2 *439:I 0.000409852
3 *25225:I 0.00313525
4 *439:I *25233:I 0
5 *439:I *25257:I 1.97747e-05
6 *439:I *25269:RN 0.000438681
7 *439:I *25278:I 0.000389489
8 *439:I *25286:I 0
9 *439:I *328:41 0.000130795
10 *25225:I *25264:D 0
11 *25225:I *25300:D 0.000560186
12 *25225:I *342:22 0.00247661
13 *25225:I *350:16 0
14 *25225:I *352:8 0
15 *451:I *439:I 0.00077307
16 *25236:I *25225:I 0.00240091
17 *85:9 *439:I 0.000406043
*RES
1 clk *25225:I 33.13 
2 *25225:I *439:I 23.396 
*END

*D_NET *324 0.00419719
*CONN
*P input_in I
*I *448:I I *D gf180mcu_fd_sc_mcu7t5v0__antenna
*I *25244:I I *D gf180mcu_fd_sc_mcu7t5v0__buf_2
*CAP
1 input_in 0.000119273
2 *448:I 0.000328832
3 *25244:I 4.26508e-05
4 *324:5 0.000490755
5 *25244:I *341:8 0.000142809
6 bidir_out[12] *324:5 0.000834607
7 bidir_pd[21] *448:I 0.000848846
8 bidir_pd[21] *324:5 0.00120072
9 bidir_pu[6] *448:I 1.47088e-05
10 bidir_sl[31] *448:I 0.000173991
*RES
1 input_in *324:5 4.446 
2 *324:5 *25244:I 13.88 
3 *324:5 *448:I 7.92 
*END

*D_NET *325 0.00310364
*CONN
*P input_pd O
*I *25129:ZN O *D gf180mcu_fd_sc_mcu7t5v0__tiel
*CAP
1 input_pd 0.000355543
2 *25129:ZN 0.000355543
3 bidir_oe[21] input_pd 0.00106365
4 bidir_pd[5] input_pd 8.08741e-05
5 bidir_sl[24] input_pd 0.00124803
*RES
1 *25129:ZN input_pd 20.8014 
*END

*D_NET *326 0.00422521
*CONN
*P input_pu O
*I *25130:ZN O *D gf180mcu_fd_sc_mcu7t5v0__tiel
*CAP
1 input_pu 0.000429267
2 *25130:ZN 0.000429267
3 bidir_cs[23] input_pu 0.000457957
4 bidir_ie[3] input_pu 0.000209093
5 bidir_ie[5] input_pu 0.000450265
6 bidir_out[33] input_pu 6.15468e-05
7 bidir_out[3] input_pu 6.38248e-05
8 bidir_pd[22] input_pu 8.40497e-05
9 bidir_pu[11] input_pu 0.000484639
10 bidir_pu[29] input_pu 0.000449068
11 bidir_sl[20] input_pu 0.000795882
12 bidir_sl[28] input_pu 0.000310356
*RES
1 *25130:ZN input_pu 21.214 
*END

*D_NET *327 0.0124845
*CONN
*P rst_n I
*I *440:I I *D gf180mcu_fd_sc_mcu7t5v0__antenna
*I *25235:I I *D gf180mcu_fd_sc_mcu7t5v0__dlyc_1
*CAP
1 rst_n 0.00204341
2 *440:I 0.000370028
3 *25235:I 0.000363333
4 *327:9 0.00277677
5 *440:I *25264:D 7.98116e-05
6 *440:I *25297:D 2.79106e-05
7 *440:I *25298:I 0.000604208
8 *440:I *25318:I 0.000217508
9 *440:I *342:12 0.000571859
10 *440:I *356:10 0.000149343
11 *25235:I *25266:I 0.000245108
12 *327:9 *25265:D 5.4883e-05
13 *327:9 *25309:D 0.000174754
14 *327:9 *25318:I 0.000376342
15 *327:9 *332:62 0
16 *327:9 *342:12 0.00111171
17 *327:9 *342:22 0.000744853
18 *327:9 *352:12 0.000710347
19 *118:5 *327:9 0.00186228
*RES
1 rst_n *327:9 22.702 
2 *327:9 *25235:I 16.312 
3 *327:9 *440:I 18.212 
*END

*D_NET *328 0.0103171
*CONN
*I *25226:I I *D gf180mcu_fd_sc_mcu7t5v0__clkbuf_16
*I *25227:I I *D gf180mcu_fd_sc_mcu7t5v0__clkbuf_16
*I *25229:I I *D gf180mcu_fd_sc_mcu7t5v0__clkbuf_16
*I *25228:I I *D gf180mcu_fd_sc_mcu7t5v0__clkbuf_16
*I *25225:Z O *D gf180mcu_fd_sc_mcu7t5v0__clkbuf_16
*CAP
1 *25226:I 0
2 *25227:I 0.000163581
3 *25229:I 0.000566107
4 *25228:I 0.000107896
5 *25225:Z 0.00129905
6 *328:41 0.000928321
7 *328:8 0.00120831
8 *25227:I *25283:I 0.00011703
9 *25228:I *25302:I 9.98178e-05
10 *25228:I *25310:I 0
11 *25229:I *25259:I 0.000136553
12 *25229:I *25302:I 0.000502471
13 *25229:I *25310:I 0
14 *25229:I *351:12 0
15 *328:8 *25257:I 1.23313e-05
16 *328:8 *25278:I 0.001787
17 *328:8 *351:12 3.25235e-05
18 *328:41 *25257:I 8.73421e-05
19 *328:41 *25269:RN 2.93056e-05
20 *328:41 *25271:I 0.000376901
21 *328:41 *25281:D 7.49908e-05
22 *328:41 *25281:CLK 0.000422786
23 *328:41 *25282:I 6.52605e-05
24 *328:41 *25313:D 0.000475813
25 *328:41 *25321:D 0.000203643
26 *328:41 *348:6 0.000359219
27 *328:41 *348:22 0.00044575
28 *439:I *328:41 0.000130795
29 *441:I *328:8 5.75752e-06
30 *25240:I *328:41 3.73535e-05
31 *25247:I *328:8 4.52262e-05
32 *25248:I *328:8 1.72918e-05
33 *88:9 *328:8 2.33073e-05
34 *116:9 *25228:I 0.000215472
35 *116:9 *328:8 4.522e-05
36 *119:9 *328:41 0.000274783
37 *122:7 *25228:I 1.99058e-05
*RES
1 *25225:Z *328:8 14.244 
2 *328:8 *25228:I 10.292 
3 *328:8 *25229:I 13.864 
4 *25225:Z *328:41 22.924 
5 *328:41 *25227:I 5.64 
6 *328:41 *25226:I 4.5 
*END

*D_NET *329 0.0135175
*CONN
*I *25288:CLK I *D gf180mcu_fd_sc_mcu7t5v0__dffrnq_1
*I *25280:CLK I *D gf180mcu_fd_sc_mcu7t5v0__dffrnq_1
*I *25230:I I *D gf180mcu_fd_sc_mcu7t5v0__inv_3
*I *25320:CLK I *D gf180mcu_fd_sc_mcu7t5v0__dffrnq_1
*I *25292:CLK I *D gf180mcu_fd_sc_mcu7t5v0__dffrnq_1
*I *25335:CLK I *D gf180mcu_fd_sc_mcu7t5v0__dffrnq_1
*I *25312:CLK I *D gf180mcu_fd_sc_mcu7t5v0__dffrnq_1
*I *25304:CLK I *D gf180mcu_fd_sc_mcu7t5v0__dffrnq_1
*I *25268:CLK I *D gf180mcu_fd_sc_mcu7t5v0__dffrnq_1
*I *25226:Z O *D gf180mcu_fd_sc_mcu7t5v0__clkbuf_16
*CAP
1 *25288:CLK 9.09097e-05
2 *25280:CLK 0
3 *25230:I 0.000437946
4 *25320:CLK 0
5 *25292:CLK 0
6 *25335:CLK 0.00038606
7 *25312:CLK 0.000106255
8 *25304:CLK 0
9 *25268:CLK 0.000429344
10 *25226:Z 0.000203697
11 *329:44 0.000609234
12 *329:40 0.000321853
13 *329:38 0.000463165
14 *329:29 0.000437491
15 *329:27 0.000732011
16 *329:25 0.000247482
17 *329:14 0.000674807
18 *25230:I *345:14 0.000264349
19 *25268:CLK *25279:I 0.000229665
20 *25268:CLK *25287:I 0.000156311
21 *25268:CLK *25290:I 0.000123951
22 *25288:CLK *25284:D 0.000134293
23 *25288:CLK *347:16 0.000144138
24 *25312:CLK *25291:I 0.000448201
25 *25312:CLK *25304:D 0.000268896
26 *25335:CLK *25312:D 0
27 *329:14 *25276:D 1.3758e-05
28 *329:14 *25279:I 5.22519e-05
29 *329:25 *25279:I 0.000528961
30 *329:27 *25279:I 0.000441063
31 *329:29 *25279:I 8.55242e-05
32 *329:29 *25289:RN 4.52262e-05
33 *329:38 *25273:CLK 0.000417311
34 *329:38 *25304:D 0.00128282
35 *329:40 *25273:CLK 0.000258197
36 *329:40 *25291:I 3.80427e-05
37 *329:40 *25304:D 0.000774299
38 *329:44 *25291:I 0.000233375
39 *329:44 *25304:D 0.000841699
40 *94:13 *25288:CLK 2.6126e-05
41 *94:13 *329:14 0.000788989
42 *119:9 *329:14 0.000779841
*RES
1 *25226:Z *329:14 15.932 
2 *329:14 *25268:CLK 7.768 
3 *329:14 *329:25 1.368 
4 *329:25 *329:27 1.14 
5 *329:27 *329:29 1.14 
6 *329:29 *25304:CLK 4.5 
7 *329:29 *329:38 3.496 
8 *329:38 *329:40 2.204 
9 *329:40 *329:44 6.704 
10 *329:44 *25312:CLK 10.52 
11 *329:44 *25335:CLK 11.356 
12 *329:40 *25292:CLK 4.5 
13 *329:38 *25320:CLK 4.5 
14 *329:27 *25230:I 15.856 
15 *329:25 *25280:CLK 4.5 
16 *25226:Z *25288:CLK 9.988 
*END

*D_NET *330 0.0226159
*CONN
*I *25269:CLK I *D gf180mcu_fd_sc_mcu7t5v0__dffrnq_1
*I *25313:CLK I *D gf180mcu_fd_sc_mcu7t5v0__dffrnq_1
*I *25281:CLK I *D gf180mcu_fd_sc_mcu7t5v0__dffrnq_1
*I *25328:CLK I *D gf180mcu_fd_sc_mcu7t5v0__dffrnq_1
*I *25329:CLK I *D gf180mcu_fd_sc_mcu7t5v0__dffrnq_1
*I *25273:CLK I *D gf180mcu_fd_sc_mcu7t5v0__dffrnq_1
*I *25289:CLK I *D gf180mcu_fd_sc_mcu7t5v0__dffrnq_1
*I *25293:CLK I *D gf180mcu_fd_sc_mcu7t5v0__dffrnq_1
*I *25305:CLK I *D gf180mcu_fd_sc_mcu7t5v0__dffrnq_1
*I *25333:CLK I *D gf180mcu_fd_sc_mcu7t5v0__dffrnq_1
*I *25277:CLK I *D gf180mcu_fd_sc_mcu7t5v0__dffrnq_1
*I *25321:CLK I *D gf180mcu_fd_sc_mcu7t5v0__dffrnq_1
*I *25227:Z O *D gf180mcu_fd_sc_mcu7t5v0__clkbuf_16
*CAP
1 *25269:CLK 0.000272905
2 *25313:CLK 0.00020009
3 *25281:CLK 0.000210918
4 *25328:CLK 0
5 *25329:CLK 0.000170047
6 *25273:CLK 0.00103199
7 *25289:CLK 0
8 *25293:CLK 0.000519126
9 *25305:CLK 0
10 *25333:CLK 0.000123981
11 *25277:CLK 0.000463012
12 *25321:CLK 0.000219209
13 *25227:Z 0.000294912
14 *330:61 0.000825455
15 *330:57 0.000370634
16 *330:55 0.00143623
17 *330:49 0.000696496
18 *330:43 0.000373441
19 *330:19 0.00072217
20 *330:17 0.000775589
21 *330:6 0.000283692
22 *25269:CLK *25273:D 0.000388541
23 *25269:CLK *25289:D 4.50449e-05
24 *25269:CLK *25303:I 0.000360235
25 *25273:CLK *25289:D 0.000316385
26 *25273:CLK *25320:D 0.000228597
27 *25277:CLK *25273:D 0.00156685
28 *25277:CLK *25280:D 0.000197178
29 *25277:CLK *25282:I 0
30 *25277:CLK *25289:D 0.000180163
31 *25277:CLK *347:16 0.000960237
32 *25281:CLK *25283:I 0
33 *25281:CLK *25313:D 7.30524e-05
34 *25293:CLK *25288:D 0
35 *25293:CLK *25293:D 7.789e-05
36 *25293:CLK *25314:I 0.000150775
37 *25313:CLK *25313:D 9.54283e-05
38 *25313:CLK *25333:RN 2.35766e-05
39 *25321:CLK *25313:D 8.55242e-05
40 *25321:CLK *25333:RN 0
41 *25329:CLK *25315:I 0
42 *25329:CLK *25329:D 2.9378e-06
43 *25329:CLK *25333:D 1.38661e-05
44 *25333:CLK *25273:D 0.000849572
45 *25333:CLK *25280:D 0.000365825
46 *330:6 *25313:D 0.000291377
47 *330:17 *25282:I 0
48 *330:17 *25306:I 3.43133e-05
49 *330:19 *25280:D 0.000117908
50 *330:19 *25282:I 0
51 *330:19 *25306:I 0.000107303
52 *330:19 *25321:RN 1.99058e-05
53 *330:43 *25283:I 0.00130889
54 *330:43 *25315:I 0.000694395
55 *330:49 *25283:I 0.000500461
56 *330:49 *25315:I 0.000555104
57 *330:49 *25320:D 0.000279408
58 *330:55 *25289:D 8.04285e-05
59 *330:55 *25294:I 0.000728257
60 *330:55 *25320:D 0.000174839
61 *330:55 *347:18 6.74649e-06
62 *330:57 *25294:I 3.98171e-05
63 *330:57 *347:18 6.42768e-05
64 *330:61 *25294:I 2.31628e-05
65 *330:61 *25314:I 2.32388e-05
66 *330:61 *347:18 0.000482679
67 *330:61 *347:28 0.000310356
68 *450:I *25269:CLK 0.000153475
69 *84:15 *25269:CLK 0.000300288
70 *119:9 *25281:CLK 0.000249427
71 *328:41 *25281:CLK 0.000422786
72 *329:38 *25273:CLK 0.000417311
73 *329:40 *25273:CLK 0.000258197
*RES
1 *25227:Z *330:6 5.336 
2 *330:6 *25321:CLK 4.728 
3 *330:6 *330:17 5.64 
4 *330:17 *330:19 3.42 
5 *330:19 *25277:CLK 13.712 
6 *330:19 *25333:CLK 11.356 
7 *330:17 *330:43 7.92 
8 *330:43 *330:49 7.388 
9 *330:49 *330:55 7.54 
10 *330:55 *330:57 0.532 
11 *330:57 *330:61 2.432 
12 *330:61 *25305:CLK 4.5 
13 *330:61 *25293:CLK 8.148 
14 *330:57 *25289:CLK 4.5 
15 *330:55 *25273:CLK 20.036 
16 *330:49 *25329:CLK 9.836 
17 *330:43 *25328:CLK 4.5 
18 *25227:Z *25281:CLK 11.052 
19 *25321:CLK *25313:CLK 10.368 
20 *25277:CLK *25269:CLK 12.724 
*END

*D_NET *331 0.00788408
*CONN
*I *25231:I I *D gf180mcu_fd_sc_mcu7t5v0__clkbuf_8
*I *25264:CLK I *D gf180mcu_fd_sc_mcu7t5v0__dffrnq_1
*I *25296:CLK I *D gf180mcu_fd_sc_mcu7t5v0__dffrnq_1
*I *25316:CLK I *D gf180mcu_fd_sc_mcu7t5v0__dffrnq_1
*I *25308:CLK I *D gf180mcu_fd_sc_mcu7t5v0__dffrnq_1
*I *25324:CLK I *D gf180mcu_fd_sc_mcu7t5v0__dffrnq_1
*I *25284:CLK I *D gf180mcu_fd_sc_mcu7t5v0__dffrnq_1
*I *25276:CLK I *D gf180mcu_fd_sc_mcu7t5v0__dffrnq_1
*I *25272:CLK I *D gf180mcu_fd_sc_mcu7t5v0__dffrnq_1
*I *25300:CLK I *D gf180mcu_fd_sc_mcu7t5v0__dffrnq_1
*I *25228:Z O *D gf180mcu_fd_sc_mcu7t5v0__clkbuf_16
*CAP
1 *25231:I 0
2 *25264:CLK 0.000182162
3 *25296:CLK 0
4 *25316:CLK 0
5 *25308:CLK 0
6 *25324:CLK 0
7 *25284:CLK 0
8 *25276:CLK 0
9 *25272:CLK 0.000555833
10 *25300:CLK 3.16186e-05
11 *25228:Z 0.000120201
12 *331:79 0.000389243
13 *331:70 0.000396351
14 *331:59 0.000416996
15 *331:55 0.000582167
16 *331:27 0.000738386
17 *331:23 0.000452222
18 *331:21 0.000405991
19 *331:12 0.000282833
20 *331:10 0.000589534
21 *25264:CLK *25296:D 0.000126613
22 *25272:CLK *25287:I 0.000343939
23 *25272:CLK *25301:CLK 6.36666e-05
24 *25272:CLK *353:16 4.25026e-05
25 *25272:CLK *353:24 0
26 *331:10 *25300:D 2.67619e-05
27 *331:12 *353:16 0.000162031
28 *331:21 *353:16 0.000200913
29 *331:23 *25301:CLK 0.000181805
30 *331:23 *25325:D 8.55327e-05
31 *331:23 *353:16 0.000159837
32 *331:27 *25301:CLK 0.000209639
33 *331:55 *25317:RN 8.73421e-05
34 *331:55 *353:16 0.000415649
35 *331:59 *25308:D 8.82876e-06
36 *331:59 *25317:RN 6.19337e-05
37 *331:70 *25308:D 0.00015588
38 *331:79 *25296:D 3.08902e-05
39 *331:79 *25308:D 0.000163601
40 *88:9 *331:10 0
41 *116:9 *331:10 0.000213178
*RES
1 *25228:Z *331:10 14.64 
2 *331:10 *331:12 0.988 
3 *331:12 *25300:CLK 4.728 
4 *331:12 *331:21 1.14 
5 *331:21 *331:23 2.204 
6 *331:23 *331:27 1.52 
7 *331:27 *25272:CLK 8.148 
8 *331:27 *25276:CLK 4.5 
9 *331:23 *25284:CLK 4.5 
10 *331:21 *25324:CLK 4.5 
11 *331:10 *331:55 2.584 
12 *331:55 *331:59 1.52 
13 *331:59 *25308:CLK 4.5 
14 *331:59 *331:70 1.444 
15 *331:70 *25316:CLK 4.5 
16 *331:70 *331:79 1.52 
17 *331:79 *25296:CLK 4.5 
18 *331:79 *25264:CLK 6.02 
19 *331:55 *25231:I 4.5 
*END

*D_NET *332 0.0165242
*CONN
*I *25265:CLK I *D gf180mcu_fd_sc_mcu7t5v0__dffrnq_1
*I *25297:CLK I *D gf180mcu_fd_sc_mcu7t5v0__dffrnq_1
*I *25317:CLK I *D gf180mcu_fd_sc_mcu7t5v0__dffrnq_1
*I *25309:CLK I *D gf180mcu_fd_sc_mcu7t5v0__dffrnq_1
*I *25301:CLK I *D gf180mcu_fd_sc_mcu7t5v0__dffrnq_1
*I *25325:CLK I *D gf180mcu_fd_sc_mcu7t5v0__dffrnq_1
*I *25285:CLK I *D gf180mcu_fd_sc_mcu7t5v0__dffrnq_1
*I *25232:I I *D gf180mcu_fd_sc_mcu7t5v0__clkbuf_12
*I *25229:Z O *D gf180mcu_fd_sc_mcu7t5v0__clkbuf_16
*CAP
1 *25265:CLK 9.8709e-05
2 *25297:CLK 0
3 *25317:CLK 0
4 *25309:CLK 0
5 *25301:CLK 0.000171455
6 *25325:CLK 4.835e-05
7 *25285:CLK 0.000344296
8 *25232:I 2.77651e-05
9 *25229:Z 2.77651e-05
10 *332:71 0.000215676
11 *332:62 0.00065416
12 *332:33 0.000276671
13 *332:20 0.00104171
14 *332:18 0.000744663
15 *332:16 0.000641311
16 *25232:I *25309:D 0.000178576
17 *25232:I *342:22 0.000385498
18 *25265:CLK *25297:D 0.000126613
19 *25265:CLK *25298:I 0.000448201
20 *25285:CLK *25277:D 0.000537602
21 *25285:CLK *25284:D 0.00121931
22 *25285:CLK *25301:RN 9.25924e-05
23 *25285:CLK *25327:I 6.22558e-05
24 *25301:CLK *25325:D 2.6126e-05
25 *25301:CLK *353:16 0.00122805
26 *25325:CLK *25325:D 8.15645e-05
27 *332:18 *25301:RN 1.39031e-05
28 *332:18 *25310:I 0.000438681
29 *332:18 *25311:I 0
30 *332:20 *25285:D 0
31 *332:20 *25301:RN 0.000275426
32 *332:20 *25310:I 3.08902e-05
33 *332:20 *25325:D 8.10197e-05
34 *332:20 *25327:I 8.55327e-05
35 *332:20 *342:22 0
36 *332:33 *25325:D 0.00155342
37 *332:62 *25298:I 0.000668373
38 *332:62 *25308:RN 1.08231e-05
39 *332:62 *25309:D 0
40 *332:62 *25310:I 0.00032464
41 *332:62 *25311:I 0
42 *332:62 *25316:D 0.0012363
43 *332:62 *25316:RN 2.24788e-05
44 *332:62 *25318:I 2.5305e-05
45 *332:71 *25264:D 3.84145e-06
46 *332:71 *25297:D 1.02578e-05
47 *332:71 *25298:I 0.000593903
48 *332:71 *25316:D 6.92468e-05
49 *25248:I *25325:CLK 0.000269857
50 *25248:I *332:33 0.00167629
51 *25272:CLK *25301:CLK 6.36666e-05
52 *88:9 *25325:CLK 0
53 *327:9 *332:62 0
54 *331:23 *25301:CLK 0.000181805
55 *331:27 *25301:CLK 0.000209639
*RES
1 *25229:Z *25232:I 9.988 
2 *25232:I *332:16 4.5 
3 *332:16 *332:18 1.14 
4 *332:18 *332:20 4.332 
5 *332:20 *25285:CLK 9.06 
6 *332:20 *332:33 8.68 
7 *332:33 *25325:CLK 9.684 
8 *332:33 *25301:CLK 12.268 
9 *332:18 *25309:CLK 4.5 
10 *332:16 *332:62 5.7 
11 *332:62 *25317:CLK 4.5 
12 *332:62 *332:71 1.672 
13 *332:71 *25297:CLK 4.5 
14 *332:71 *25265:CLK 6.02 
*END

*D_NET *333 0.00197358
*CONN
*I *25265:D I *D gf180mcu_fd_sc_mcu7t5v0__dffrnq_1
*I *25236:Z O *D gf180mcu_fd_sc_mcu7t5v0__dlyc_1
*CAP
1 *25265:D 0.000526826
2 *25236:Z 0.000526826
3 *25265:D *25264:D 0.000120769
4 *25265:D *25266:I 2.14818e-05
5 *25265:D *25311:I 0.000109753
6 *25265:D *25316:D 0.000478423
7 *25265:D *25317:D 0
8 *25265:D *25318:I 0.000134622
9 *327:9 *25265:D 5.4883e-05
*RES
1 *25236:Z *25265:D 22.256 
*END

*D_NET *334 0.0063155
*CONN
*I *25301:D I *D gf180mcu_fd_sc_mcu7t5v0__dffrnq_1
*I *25237:Z O *D gf180mcu_fd_sc_mcu7t5v0__dlyc_1
*CAP
1 *25301:D 0.000617508
2 *25237:Z 0.000617508
3 *25301:D *25233:I 6.33531e-06
4 *25301:D *25257:I 0.000816185
5 *25301:D *25273:D 5.29128e-05
6 *25301:D *25277:D 1.19403e-05
7 *25301:D *25285:D 0.000637319
8 *25301:D *25300:D 0.00166567
9 *25301:D *25325:D 0.000192855
10 *25301:D *343:10 0.000218672
11 *25301:D *343:16 0.000258985
12 *25301:D *349:10 0.00109566
13 *84:15 *25301:D 0.000123951
*RES
1 *25237:Z *25301:D 28.032 
*END

*D_NET *335 0.00285627
*CONN
*I *25305:D I *D gf180mcu_fd_sc_mcu7t5v0__dffrnq_1
*I *25238:Z O *D gf180mcu_fd_sc_mcu7t5v0__dlyc_1
*CAP
1 *25305:D 0.000427287
2 *25238:Z 0.000427287
3 *25305:D *25288:D 0.00155991
4 *25305:D *25307:I 9.026e-05
5 *25305:D *25312:RN 0.000149579
6 *25305:D *347:28 0.000201948
*RES
1 *25238:Z *25305:D 14.244 
*END

*D_NET *336 0.00229747
*CONN
*I *25309:D I *D gf180mcu_fd_sc_mcu7t5v0__dffrnq_1
*I *25239:Z O *D gf180mcu_fd_sc_mcu7t5v0__dlyc_1
*CAP
1 *25309:D 0.000557104
2 *25239:Z 0.000557104
3 *25309:D *25301:RN 0.000167089
4 *25309:D *25310:I 0.000452547
5 *25309:D *25311:I 1.15312e-05
6 *25309:D *342:22 0.000144766
7 *25232:I *25309:D 0.000178576
8 *122:7 *25309:D 5.39963e-05
9 *327:9 *25309:D 0.000174754
10 *332:62 *25309:D 0
*RES
1 *25239:Z *25309:D 22.94 
*END

*D_NET *337 0.00317735
*CONN
*I *25313:D I *D gf180mcu_fd_sc_mcu7t5v0__dffrnq_1
*I *25240:Z O *D gf180mcu_fd_sc_mcu7t5v0__dlyc_1
*CAP
1 *25313:D 0.000567947
2 *25240:Z 0.000567947
3 *25313:D *25272:D 0.000169363
4 *25313:D *25282:I 0.000186796
5 *25313:D *25283:I 7.59646e-05
6 *25313:D *25321:D 0.000309371
7 *25313:D *25333:RN 9.88736e-06
8 *25313:D *348:22 8.04285e-05
9 *25281:CLK *25313:D 7.30524e-05
10 *25313:CLK *25313:D 9.54283e-05
11 *25321:CLK *25313:D 8.55242e-05
12 *119:9 *25313:D 0.000104577
13 *121:9 *25313:D 8.38765e-05
14 *328:41 *25313:D 0.000475813
15 *330:6 *25313:D 0.000291377
*RES
1 *25240:Z *25313:D 24.46 
*END

*D_NET *338 0.00105923
*CONN
*I *25317:D I *D gf180mcu_fd_sc_mcu7t5v0__dffrnq_1
*I *25241:Z O *D gf180mcu_fd_sc_mcu7t5v0__dlyc_1
*CAP
1 *25317:D 0.000330378
2 *25241:Z 0.000330378
3 *25317:D *25264:D 0.000214544
4 *25317:D *25311:I 5.29084e-05
5 *25317:D *350:16 0.000131024
6 *25265:D *25317:D 0
*RES
1 *25241:Z *25317:D 20.736 
*END

*D_NET *339 0.00151476
*CONN
*I *25321:D I *D gf180mcu_fd_sc_mcu7t5v0__dffrnq_1
*I *25242:Z O *D gf180mcu_fd_sc_mcu7t5v0__dlyc_1
*CAP
1 *25321:D 0.000298514
2 *25242:Z 0.000298514
3 *25321:D *25282:I 0.000204929
4 *25321:D *25283:I 0.000199786
5 *25313:D *25321:D 0.000309371
6 *328:41 *25321:D 0.000203643
*RES
1 *25242:Z *25321:D 21.496 
*END

*D_NET *340 0.004805
*CONN
*I *25325:D I *D gf180mcu_fd_sc_mcu7t5v0__dffrnq_1
*I *25243:Z O *D gf180mcu_fd_sc_mcu7t5v0__dlyc_1
*CAP
1 *25325:D 0.000885904
2 *25243:Z 0.000885904
3 *25325:D *25285:D 0.000186796
4 *25325:D *25300:D 1.20079e-05
5 *25325:D *25324:D 0.000103796
6 *25325:D *25325:RN 8.35649e-05
7 *25325:D *25327:I 0.000342528
8 *25325:D *342:22 0.000255563
9 *25325:D *353:16 1.97747e-05
10 *25248:I *25325:D 8.64697e-06
11 *25301:D *25325:D 0.000192855
12 *25301:CLK *25325:D 2.6126e-05
13 *25325:CLK *25325:D 8.15645e-05
14 *88:9 *25325:D 0
15 *331:23 *25325:D 8.55327e-05
16 *332:20 *25325:D 8.10197e-05
17 *332:33 *25325:D 0.00155342
*RES
1 *25243:Z *25325:D 27.5 
*END

*D_NET *341 0.0844055
*CONN
*I *25329:D I *D gf180mcu_fd_sc_mcu7t5v0__dffrnq_1
*I *25244:Z O *D gf180mcu_fd_sc_mcu7t5v0__buf_2
*CAP
1 *25329:D 0.00112149
2 *25244:Z 0
3 *341:12 0.0217891
4 *341:10 0.0206676
5 *341:8 0.0187905
6 *341:6 0.0187905
7 *25329:D *25315:I 8.1437e-05
8 *25329:D *25338:I 0.000147775
9 bidir_cs[20] *341:8 0
10 bidir_cs[21] *341:8 0
11 bidir_cs[37] *341:8 0.000786694
12 bidir_ie[22] *341:8 0
13 bidir_ie[29] *341:8 0.000814144
14 bidir_oe[11] *341:8 0
15 bidir_oe[20] *341:8 0.000449483
16 bidir_oe[22] *341:8 2.70169e-05
17 bidir_oe[24] *341:8 4.75539e-05
18 bidir_oe[39] *341:8 3.24054e-05
19 bidir_out[12] *341:8 0.000677941
20 bidir_out[19] *341:8 0
21 bidir_pd[8] *341:8 0
22 *25244:I *341:8 0.000142809
23 *25252:I *25329:D 3.59561e-05
24 *25329:CLK *25329:D 2.9378e-06
*RES
1 *25244:Z *341:6 9 
2 *341:6 *341:8 132.468 
3 *341:8 *341:10 4.5 
4 *341:10 *341:12 120.764 
5 *341:12 *25329:D 29.264 
*END

*D_NET *342 0.0108653
*CONN
*I *25234:I I *D gf180mcu_fd_sc_mcu7t5v0__dlyc_1
*I *25324:RN I *D gf180mcu_fd_sc_mcu7t5v0__dffrnq_1
*I *25325:RN I *D gf180mcu_fd_sc_mcu7t5v0__dffrnq_1
*I *25245:Z O *D gf180mcu_fd_sc_mcu7t5v0__dlyc_1
*CAP
1 *25234:I 0
2 *25324:RN 0
3 *25325:RN 9.60247e-05
4 *25245:Z 0.000522357
5 *342:22 0.000700409
6 *342:12 0.00112674
7 *25325:RN *25301:RN 0.000255714
8 *25325:RN *25324:D 0.000158954
9 *25325:RN *351:14 0.00026286
10 *342:12 *25245:I 0.000734813
11 *342:12 *25263:I 0.000292106
12 *342:12 *25266:I 0
13 *342:12 *25318:I 5.70914e-05
14 *342:12 *352:8 0
15 *342:12 *356:10 0
16 *342:22 *25300:D 0.000529634
17 *342:22 *25324:D 0.000312235
18 *342:22 *25327:I 4.18914e-05
19 *342:22 *352:8 0
20 *440:I *342:12 0.000571859
21 *25225:I *342:22 0.00247661
22 *25232:I *342:22 0.000385498
23 *25309:D *342:22 0.000144766
24 *25325:D *25325:RN 8.35649e-05
25 *25325:D *342:22 0.000255563
26 *327:9 *342:12 0.00111171
27 *327:9 *342:22 0.000744853
28 *332:20 *342:22 0
*RES
1 *25245:Z *342:12 20.188 
2 *342:12 *342:22 14.532 
3 *342:22 *25325:RN 10.672 
4 *342:22 *25324:RN 9 
5 *342:12 *25234:I 4.5 
*END

*D_NET *343 0.0109028
*CONN
*I *25273:RN I *D gf180mcu_fd_sc_mcu7t5v0__dffrnq_1
*I *25255:I I *D gf180mcu_fd_sc_mcu7t5v0__clkbuf_2
*I *25258:I I *D gf180mcu_fd_sc_mcu7t5v0__clkbuf_1
*I *25233:Z O *D gf180mcu_fd_sc_mcu7t5v0__dlyc_1
*CAP
1 *25273:RN 0.00101131
2 *25255:I 0.000192098
3 *25258:I 0
4 *25233:Z 0.000250627
5 *343:16 0.00103288
6 *343:10 0.00210272
7 *25255:I *346:8 8.62462e-05
8 *25255:I *349:10 9.26705e-05
9 *25273:RN *25268:RN 5.3266e-05
10 *25273:RN *25284:D 0.000997257
11 *25273:RN *25288:D 0.000679603
12 *25273:RN *25304:RN 0.000784692
13 *25273:RN *348:22 3.24934e-05
14 *25273:RN *348:24 0.000493307
15 *25273:RN *349:18 0.000236321
16 *343:10 *25233:I 0.00039297
17 *343:10 *25300:D 8.04285e-05
18 *343:16 *25233:I 0.000439026
19 *343:16 *346:8 9.92647e-05
20 *343:16 *349:10 0.000207314
21 *343:16 *353:20 0.000129342
22 *25301:D *343:10 0.000218672
23 *25301:D *343:16 0.000258985
24 *84:15 *343:10 8.04285e-05
25 *84:15 *343:16 0
26 *89:13 *343:16 0
27 *94:13 *25273:RN 0.000760559
28 *119:9 *25273:RN 0.000190317
*RES
1 *25233:Z *343:10 11.584 
2 *343:10 *343:16 11.036 
3 *343:16 *25258:I 4.5 
4 *343:16 *25255:I 5.868 
5 *343:10 *25273:RN 29.628 
*END

*D_NET *344 0.00252602
*CONN
*I *25269:D I *D gf180mcu_fd_sc_mcu7t5v0__dffrnq_1
*I *25246:Z O *D gf180mcu_fd_sc_mcu7t5v0__dlyc_1
*CAP
1 *25269:D 0.00040677
2 *25246:Z 0.00040677
3 *25269:D *25233:I 0.000462868
4 *25269:D *25257:I 0
5 *25269:D *25269:RN 0.00015121
6 *25269:D *25303:I 5.71282e-05
7 *25269:D *347:16 0.00104128
*RES
1 *25246:Z *25269:D 22.864 
*END

*D_NET *345 0.0130405
*CONN
*I *25313:RN I *D gf180mcu_fd_sc_mcu7t5v0__dffrnq_1
*I *25321:RN I *D gf180mcu_fd_sc_mcu7t5v0__dffrnq_1
*I *25293:RN I *D gf180mcu_fd_sc_mcu7t5v0__dffrnq_1
*I *25254:Z O *D gf180mcu_fd_sc_mcu7t5v0__buf_1
*CAP
1 *25313:RN 0.000131573
2 *25321:RN 0.00058144
3 *25293:RN 0.00047925
4 *25254:Z 0.00154195
5 *345:14 0.00247107
6 *25293:RN *25292:D 0.000785104
7 *25293:RN *25305:RN 0.00092443
8 *25313:RN *25280:D 3.78032e-05
9 *25313:RN *25333:D 0
10 *25321:RN *25279:I 0.000825561
11 *25321:RN *25280:D 0.000415357
12 *25321:RN *25306:I 0.000127121
13 *345:14 *25279:I 0.00045128
14 *25230:I *345:14 0.000264349
15 *25238:I *25293:RN 0.00398435
16 *330:19 *25321:RN 1.99058e-05
*RES
1 *25254:Z *345:14 17.056 
2 *345:14 *25293:RN 19.564 
3 *345:14 *25321:RN 13.636 
4 *25321:RN *25313:RN 9.76 
*END

*D_NET *346 0.0189996
*CONN
*I *25254:I I *D gf180mcu_fd_sc_mcu7t5v0__buf_1
*I *25269:RN I *D gf180mcu_fd_sc_mcu7t5v0__dffrnq_1
*I *25281:RN I *D gf180mcu_fd_sc_mcu7t5v0__dffrnq_1
*I *25305:RN I *D gf180mcu_fd_sc_mcu7t5v0__dffrnq_1
*I *25255:Z O *D gf180mcu_fd_sc_mcu7t5v0__clkbuf_2
*CAP
1 *25254:I 0
2 *25269:RN 0.00054287
3 *25281:RN 0
4 *25305:RN 0.000812934
5 *25255:Z 0.000760899
6 *346:39 0.000847413
7 *346:18 0.00175966
8 *346:8 0.00140308
9 *25269:RN *25281:D 0.000240774
10 *25269:RN *348:22 0.00117349
11 *25305:RN *25276:D 5.87561e-06
12 *25305:RN *25289:RN 0.00319551
13 *25305:RN *25292:D 0.000307966
14 *25305:RN *25304:D 0.000142704
15 *346:8 *25290:I 0.000259822
16 *346:18 *25268:D 0
17 *346:18 *25276:D 4.33001e-05
18 *346:18 *25277:RN 9.88736e-06
19 *346:18 *25289:RN 0.000277084
20 *346:18 *25290:I 0.000616689
21 *346:39 *25283:I 0.000147941
22 *439:I *25269:RN 0.000438681
23 *455:I *25269:RN 1.13134e-05
24 *455:I *346:39 1.3758e-05
25 *25238:I *25305:RN 0.000339321
26 *25238:I *346:39 0.00020862
27 *25255:I *346:8 8.62462e-05
28 *25269:D *25269:RN 0.00015121
29 *25293:RN *25305:RN 0.00092443
30 *87:9 *25269:RN 0.00123186
31 *87:9 *346:18 0.000210598
32 *87:9 *346:39 0.002277
33 *121:9 *346:39 0.000430082
34 *328:41 *25269:RN 2.93056e-05
35 *343:16 *346:8 9.92647e-05
*RES
1 *25255:Z *346:8 9.972 
2 *346:8 *346:18 13.788 
3 *346:18 *25305:RN 15.596 
4 *346:18 *346:39 14.928 
5 *346:39 *25281:RN 4.5 
6 *346:39 *25269:RN 20.72 
7 *346:8 *25254:I 4.5 
*END

*D_NET *347 0.0129881
*CONN
*I *25320:RN I *D gf180mcu_fd_sc_mcu7t5v0__dffrnq_1
*I *25292:RN I *D gf180mcu_fd_sc_mcu7t5v0__dffrnq_1
*I *25335:D I *D gf180mcu_fd_sc_mcu7t5v0__dffrnq_1
*I *25312:RN I *D gf180mcu_fd_sc_mcu7t5v0__dffrnq_1
*I *25256:Z O *D gf180mcu_fd_sc_mcu7t5v0__clkbuf_2
*CAP
1 *25320:RN 0
2 *25292:RN 0
3 *25335:D 0
4 *25312:RN 0.000125717
5 *25256:Z 0.00137781
6 *347:28 0.000507483
7 *347:18 0.000588619
8 *347:16 0.00158466
9 *347:16 *25233:I 0.000187659
10 *347:16 *25256:I 0.000197186
11 *347:16 *25257:I 0
12 *347:16 *25271:I 0
13 *347:16 *25273:D 0.000505167
14 *347:16 *25274:I 6.96894e-05
15 *347:16 *25277:D 0.000585746
16 *347:16 *25284:D 3.97565e-05
17 *347:16 *25289:D 0.00190918
18 *347:16 *25303:I 0.000203508
19 *347:18 *25289:D 8.04285e-05
20 *347:28 *25288:D 5.40596e-05
21 *25269:D *347:16 0.00104128
22 *25277:CLK *347:16 0.000960237
23 *25288:CLK *347:16 0.000144138
24 *25305:D *25312:RN 0.000149579
25 *25305:D *347:28 0.000201948
26 *89:13 *347:16 0.000104192
27 *94:13 *347:16 0.00119927
28 *94:13 *347:18 0.00026906
29 *94:13 *347:28 3.76416e-05
30 *330:55 *347:18 6.74649e-06
31 *330:57 *347:18 6.42768e-05
32 *330:61 *347:18 0.000482679
33 *330:61 *347:28 0.000310356
*RES
1 *25256:Z *347:16 32.956 
2 *347:16 *347:18 2.204 
3 *347:18 *347:28 12.116 
4 *347:28 *25312:RN 5.564 
5 *347:28 *25335:D 4.5 
6 *347:18 *25292:RN 4.5 
7 *347:16 *25320:RN 4.5 
*END

*D_NET *348 0.0158702
*CONN
*I *25256:I I *D gf180mcu_fd_sc_mcu7t5v0__clkbuf_2
*I *25288:RN I *D gf180mcu_fd_sc_mcu7t5v0__dffrnq_1
*I *25280:RN I *D gf180mcu_fd_sc_mcu7t5v0__dffrnq_1
*I *25304:RN I *D gf180mcu_fd_sc_mcu7t5v0__dffrnq_1
*I *25257:Z O *D gf180mcu_fd_sc_mcu7t5v0__clkbuf_2
*CAP
1 *25256:I 6.25988e-05
2 *25288:RN 8.3343e-05
3 *25280:RN 0
4 *25304:RN 3.63763e-05
5 *25257:Z 0.000484447
6 *348:24 9.36634e-05
7 *348:22 0.00107447
8 *348:6 0.00148088
9 *25288:RN *25287:I 0.000108802
10 *25288:RN *25289:RN 0.000246674
11 *25304:RN *25288:D 0.000784692
12 *348:6 *25257:I 0.000269279
13 *348:6 *25274:I 0.00115212
14 *348:6 *25286:I 0.000266216
15 *348:6 *25326:I 0.000141897
16 *348:22 *25268:D 0.000300836
17 *348:22 *25270:I 2.96621e-05
18 *348:22 *25271:I 0.000369754
19 *348:22 *25272:D 0.000143217
20 *348:22 *25274:I 0.000424388
21 *348:22 *25284:D 0.000355015
22 *348:22 *25288:D 8.17043e-05
23 *348:24 *25284:D 2.17922e-05
24 *348:24 *25288:D 0.00055495
25 *25240:I *348:22 0.000113374
26 *25251:I *348:22 0.00046886
27 *25269:RN *348:22 0.00117349
28 *25273:RN *25304:RN 0.000784692
29 *25273:RN *348:22 3.24934e-05
30 *25273:RN *348:24 0.000493307
31 *25313:D *348:22 8.04285e-05
32 *87:9 *348:22 0.000757047
33 *119:9 *25288:RN 0.00120117
34 *121:9 *25288:RN 0.00119645
35 *328:41 *348:6 0.000359219
36 *328:41 *348:22 0.00044575
37 *347:16 *25256:I 0.000197186
*RES
1 *25257:Z *348:6 10.96 
2 *348:6 *348:22 21.16 
3 *348:22 *348:24 1.596 
4 *348:24 *25304:RN 6.552 
5 *348:24 *25280:RN 4.5 
6 *348:22 *25288:RN 17.3 
7 *348:6 *25256:I 14.032 
*END

*D_NET *349 0.0104001
*CONN
*I *25257:I I *D gf180mcu_fd_sc_mcu7t5v0__clkbuf_2
*I *25272:RN I *D gf180mcu_fd_sc_mcu7t5v0__dffrnq_1
*I *25268:RN I *D gf180mcu_fd_sc_mcu7t5v0__dffrnq_1
*I *25258:Z O *D gf180mcu_fd_sc_mcu7t5v0__clkbuf_1
*CAP
1 *25257:I 0.00102332
2 *25272:RN 2.00087e-05
3 *25268:RN 8.88549e-05
4 *25258:Z 0.000678058
5 *349:18 0.000396119
6 *349:10 0.00198864
7 *25257:I *25233:I 0.000103796
8 *25257:I *25278:I 0.000105032
9 *25257:I *25324:D 1.97747e-05
10 *25268:RN *25284:D 0.000140194
11 *25272:RN *25284:D 1.15275e-05
12 *349:18 *25284:D 0.000148635
13 *349:18 *25285:D 0.000475038
14 *439:I *25257:I 1.97747e-05
15 *441:I *25257:I 0.000337459
16 *451:I *25257:I 0.000403596
17 *454:I *25257:I 0.000715765
18 *25247:I *25257:I 0
19 *25255:I *349:10 9.26705e-05
20 *25269:D *25257:I 0
21 *25273:RN *25268:RN 5.3266e-05
22 *25273:RN *349:18 0.000236321
23 *25301:D *25257:I 0.000816185
24 *25301:D *349:10 0.00109566
25 *84:15 *25257:I 0.000144998
26 *84:15 *349:10 0.000461588
27 *85:9 *25257:I 0.000247586
28 *328:8 *25257:I 1.23313e-05
29 *328:41 *25257:I 8.73421e-05
30 *343:16 *349:10 0.000207314
31 *347:16 *25257:I 0
32 *348:6 *25257:I 0.000269279
*RES
1 *25258:Z *349:10 15.384 
2 *349:10 *349:18 7.464 
3 *349:18 *25268:RN 5.412 
4 *349:18 *25272:RN 4.728 
5 *349:10 *25257:I 20.552 
*END

*D_NET *350 0.00547427
*CONN
*I *25260:I I *D gf180mcu_fd_sc_mcu7t5v0__clkbuf_1
*I *25263:I I *D gf180mcu_fd_sc_mcu7t5v0__buf_2
*I *25264:RN I *D gf180mcu_fd_sc_mcu7t5v0__dffrnq_1
*I *25296:RN I *D gf180mcu_fd_sc_mcu7t5v0__dffrnq_1
*I *25234:Z O *D gf180mcu_fd_sc_mcu7t5v0__dlyc_1
*CAP
1 *25260:I 0.000367392
2 *25263:I 0.000379507
3 *25264:RN 0
4 *25296:RN 0.000119541
5 *25234:Z 0.000325199
6 *350:16 0.000475039
7 *350:12 0.000949712
8 *350:10 0.000907298
9 *25260:I *352:8 0.00064102
10 *25263:I *25245:I 0.000171927
11 *25263:I *25266:I 7.57844e-05
12 *25263:I *352:8 7.02124e-05
13 *25296:RN *25311:I 2.98535e-05
14 *25296:RN *25316:D 5.48085e-05
15 *350:16 *25264:D 1.5961e-05
16 *445:I *350:10 2.57085e-05
17 *25225:I *350:16 0
18 *25236:I *25260:I 4.63012e-05
19 *25236:I *350:10 0
20 *25236:I *350:12 0
21 *25236:I *350:16 0
22 *25241:I *350:10 0.000186796
23 *25317:D *350:16 0.000131024
24 *120:9 *350:10 0.000209085
25 *342:12 *25263:I 0.000292106
*RES
1 *25234:Z *350:10 11.28 
2 *350:10 *350:12 1.292 
3 *350:12 *350:16 6.856 
4 *350:16 *25296:RN 5.412 
5 *350:16 *25264:RN 4.5 
6 *350:12 *25263:I 12.572 
7 *350:10 *25260:I 12.572 
*END

*D_NET *351 0.00755374
*CONN
*I *25300:RN I *D gf180mcu_fd_sc_mcu7t5v0__dffrnq_1
*I *25284:RN I *D gf180mcu_fd_sc_mcu7t5v0__dffrnq_1
*I *25276:RN I *D gf180mcu_fd_sc_mcu7t5v0__dffrnq_1
*I *25259:Z O *D gf180mcu_fd_sc_mcu7t5v0__buf_1
*CAP
1 *25300:RN 0
2 *25284:RN 5.7371e-05
3 *25276:RN 7.4856e-05
4 *25259:Z 0.000669456
5 *351:14 0.000587482
6 *351:12 0.00112471
7 *25276:RN *25285:D 0.000255714
8 *25284:RN *25284:D 0.000197186
9 *351:12 *25259:I 3.73627e-05
10 *351:12 *25278:I 0.000101612
11 *351:12 *25300:D 0.000943486
12 *351:12 *25302:I 0.00206633
13 *351:12 *25326:I 3.50638e-06
14 *351:14 *25285:D 0.000137785
15 *351:14 *25301:RN 0.000396648
16 *441:I *351:12 0.00044442
17 *447:I *351:12 0
18 *25229:I *351:12 0
19 *25243:I *351:12 0
20 *25325:RN *351:14 0.00026286
21 *85:9 *25284:RN 0
22 *88:9 *351:12 0.000160427
23 *116:9 *351:12 0
24 *328:8 *351:12 3.25235e-05
*RES
1 *25259:Z *351:12 21.86 
2 *351:12 *351:14 3.572 
3 *351:14 *25276:RN 5.184 
4 *351:14 *25284:RN 14.032 
5 *351:12 *25300:RN 4.5 
*END

*D_NET *352 0.00781285
*CONN
*I *25259:I I *D gf180mcu_fd_sc_mcu7t5v0__buf_1
*I *25316:RN I *D gf180mcu_fd_sc_mcu7t5v0__dffrnq_1
*I *25308:RN I *D gf180mcu_fd_sc_mcu7t5v0__dffrnq_1
*I *25260:Z O *D gf180mcu_fd_sc_mcu7t5v0__clkbuf_1
*CAP
1 *25259:I 0.000717536
2 *25316:RN 0.000105369
3 *25308:RN 4.84062e-05
4 *25260:Z 0.000791067
5 *352:12 0.000378188
6 *352:8 0.00173302
7 *25308:RN *25311:I 2.3995e-06
8 *25316:RN *25311:I 3.83626e-06
9 *352:8 *25266:I 0.000201957
10 *443:I *25259:I 0.000460029
11 *25225:I *352:8 0
12 *25229:I *25259:I 0.000136553
13 *25236:I *352:8 0
14 *25239:I *352:8 0
15 *25260:I *352:8 0.00064102
16 *25263:I *352:8 7.02124e-05
17 *118:5 *25259:I 0.000484604
18 *118:5 *352:12 0.00125765
19 *120:9 *352:8 0
20 *327:9 *352:12 0.000710347
21 *332:62 *25308:RN 1.08231e-05
22 *332:62 *25316:RN 2.24788e-05
23 *342:12 *352:8 0
24 *342:22 *352:8 0
25 *351:12 *25259:I 3.73627e-05
*RES
1 *25260:Z *352:8 15.156 
2 *352:8 *352:12 7.92 
3 *352:12 *25308:RN 4.728 
4 *352:12 *25316:RN 5.108 
5 *352:8 *25259:I 14.472 
*END

*D_NET *353 0.0171138
*CONN
*I *25285:RN I *D gf180mcu_fd_sc_mcu7t5v0__dffrnq_1
*I *25233:I I *D gf180mcu_fd_sc_mcu7t5v0__dlyc_1
*I *25277:RN I *D gf180mcu_fd_sc_mcu7t5v0__dffrnq_1
*I *25289:RN I *D gf180mcu_fd_sc_mcu7t5v0__dffrnq_1
*I *25261:Z O *D gf180mcu_fd_sc_mcu7t5v0__clkbuf_2
*CAP
1 *25285:RN 0
2 *25233:I 0.000750774
3 *25277:RN 9.39553e-06
4 *25289:RN 0.000521118
5 *25261:Z 0.00142658
6 *353:24 0.000893336
7 *353:20 0.00117736
8 *353:16 0.00149035
9 *25277:RN *25276:D 7.50749e-05
10 *25289:RN *25287:I 0.00111049
11 *25289:RN *25304:D 0.000468948
12 *353:16 *25276:D 3.51161e-05
13 *353:16 *25311:I 0.000333372
14 *353:16 *354:10 0.000101246
15 *353:16 *354:21 0.000108988
16 *353:24 *25276:D 0.000590479
17 *353:24 *25287:I 3.61829e-05
18 *439:I *25233:I 0
19 *25257:I *25233:I 0.000103796
20 *25269:D *25233:I 0.000462868
21 *25272:CLK *353:16 4.25026e-05
22 *25272:CLK *353:24 0
23 *25288:RN *25289:RN 0.000246674
24 *25301:D *25233:I 6.33531e-06
25 *25301:CLK *353:16 0.00122805
26 *25305:RN *25289:RN 0.00319551
27 *25325:D *353:16 1.97747e-05
28 *89:13 *25233:I 0
29 *89:13 *353:20 0
30 *122:7 *353:16 0.00025983
31 *329:29 *25289:RN 4.52262e-05
32 *331:12 *353:16 0.000162031
33 *331:21 *353:16 0.000200913
34 *331:23 *353:16 0.000159837
35 *331:55 *353:16 0.000415649
36 *343:10 *25233:I 0.00039297
37 *343:16 *25233:I 0.000439026
38 *343:16 *353:20 0.000129342
39 *346:18 *25277:RN 9.88736e-06
40 *346:18 *25289:RN 0.000277084
41 *347:16 *25233:I 0.000187659
*RES
1 *25261:Z *353:16 25.356 
2 *353:16 *353:20 5.184 
3 *353:20 *353:24 7.92 
4 *353:24 *25289:RN 14.532 
5 *353:24 *25277:RN 4.88 
6 *353:20 *25233:I 17.056 
7 *353:16 *25285:RN 4.5 
*END

*D_NET *354 0.0125782
*CONN
*I *25301:RN I *D gf180mcu_fd_sc_mcu7t5v0__dffrnq_1
*I *25317:RN I *D gf180mcu_fd_sc_mcu7t5v0__dffrnq_1
*I *25309:RN I *D gf180mcu_fd_sc_mcu7t5v0__dffrnq_1
*I *25261:I I *D gf180mcu_fd_sc_mcu7t5v0__clkbuf_2
*I *25262:Z O *D gf180mcu_fd_sc_mcu7t5v0__buf_2
*CAP
1 *25301:RN 0.00114281
2 *25317:RN 0.000499552
3 *25309:RN 0
4 *25261:I 6.61485e-05
5 *25262:Z 0.00080766
6 *354:23 0.000499552
7 *354:21 0.00166985
8 *354:10 0.00140085
9 *25301:RN *25284:D 0.000375344
10 *25301:RN *25285:D 0.000924773
11 *25301:RN *25311:I 0.000474074
12 *25317:RN *25308:D 0.00164894
13 *354:21 *25311:I 0.000229879
14 *25253:I *25317:RN 0.00125742
15 *25285:CLK *25301:RN 9.25924e-05
16 *25309:D *25301:RN 0.000167089
17 *25325:RN *25301:RN 0.000255714
18 *122:7 *25301:RN 2.04836e-05
19 *331:55 *25317:RN 8.73421e-05
20 *331:59 *25317:RN 6.19337e-05
21 *332:18 *25301:RN 1.39031e-05
22 *332:20 *25301:RN 0.000275426
23 *351:14 *25301:RN 0.000396648
24 *353:16 *354:10 0.000101246
25 *353:16 *354:21 0.000108988
*RES
1 *25262:Z *354:10 13.56 
2 *354:10 *25261:I 9.38 
3 *354:10 *354:21 3.116 
4 *354:21 *354:23 4.5 
5 *354:23 *25309:RN 4.5 
6 *354:23 *25317:RN 11.112 
7 *354:21 *25301:RN 20.476 
*END

*D_NET *355 0.0103924
*CONN
*I *25273:D I *D gf180mcu_fd_sc_mcu7t5v0__dffrnq_1
*I *25247:Z O *D gf180mcu_fd_sc_mcu7t5v0__dlyc_1
*CAP
1 *25273:D 0.00161828
2 *25247:Z 0.00161828
3 *25273:D *25275:I 7.2647e-05
4 *25273:D *25276:D 0
5 *25273:D *25277:D 0.000977797
6 *25273:D *25280:D 7.62716e-05
7 *25273:D *25289:D 0.00161447
8 *25273:D *25303:I 0.000642863
9 *25273:D *25320:D 0
10 *25273:D *25322:I 5.70161e-05
11 *25273:D *25323:I 0.000239048
12 *450:I *25273:D 1.72912e-05
13 *25269:CLK *25273:D 0.000388541
14 *25277:CLK *25273:D 0.00156685
15 *25301:D *25273:D 5.29128e-05
16 *25333:CLK *25273:D 0.000849572
17 *84:15 *25273:D 9.54283e-05
18 *347:16 *25273:D 0.000505167
*RES
1 *25247:Z *25273:D 37.38 
*END

*D_NET *356 0.00557267
*CONN
*I *25265:RN I *D gf180mcu_fd_sc_mcu7t5v0__dffrnq_1
*I *25297:RN I *D gf180mcu_fd_sc_mcu7t5v0__dffrnq_1
*I *25262:I I *D gf180mcu_fd_sc_mcu7t5v0__buf_2
*I *25263:Z O *D gf180mcu_fd_sc_mcu7t5v0__buf_2
*CAP
1 *25265:RN 0
2 *25297:RN 6.0857e-05
3 *25262:I 0.00119079
4 *25263:Z 0.000686417
5 *356:14 0.00127085
6 *356:10 0.000705616
7 *356:10 *25266:I 0
8 *356:10 *25297:D 5.18232e-05
9 *356:10 *25299:I 0.000211315
10 *356:10 *25316:D 0
11 *356:14 *25308:D 0.000626404
12 *440:I *356:10 0.000149343
13 *25253:I *356:14 0.000619258
14 *342:12 *356:10 0
*RES
1 *25263:Z *356:10 18.744 
2 *356:10 *356:14 6.096 
3 *356:14 *25262:I 14.624 
4 *356:14 *25297:RN 9.38 
5 *356:10 *25265:RN 4.5 
*END

*D_NET *357 0.00206982
*CONN
*I *25333:RN I *D gf180mcu_fd_sc_mcu7t5v0__dffrnq_1
*I *25334:Z O *D gf180mcu_fd_sc_mcu7t5v0__tieh
*CAP
1 *25333:RN 0.000579963
2 *25334:Z 0.000579963
3 *25333:RN *25283:I 0.000177902
4 *25333:RN *25306:I 0
5 *25333:RN *25323:I 0.00069853
6 *25333:RN *430:12 0
7 *25313:D *25333:RN 9.88736e-06
8 *25313:CLK *25333:RN 2.35766e-05
9 *25321:CLK *25333:RN 0
*RES
1 *25334:Z *25333:RN 22.484 
*END

*D_NET *358 0.000930536
*CONN
*I *25335:RN I *D gf180mcu_fd_sc_mcu7t5v0__dffrnq_1
*I *25336:Z O *D gf180mcu_fd_sc_mcu7t5v0__tieh
*CAP
1 *25335:RN 0.000416808
2 *25336:Z 0.000416808
3 *25335:RN *25293:D 0
4 *25335:RN *25315:I 6.07121e-05
5 *25335:RN *25338:I 3.62081e-05
*RES
1 *25336:Z *25335:RN 11.356 
*END

*D_NET *359 0.00151407
*CONN
*I *25245:I I *D gf180mcu_fd_sc_mcu7t5v0__dlyc_1
*I *25235:Z O *D gf180mcu_fd_sc_mcu7t5v0__dlyc_1
*CAP
1 *25245:I 0.000292082
2 *25235:Z 0.000292082
3 *25245:I *25266:I 2.31627e-05
4 *25263:I *25245:I 0.000171927
5 *342:12 *25245:I 0.000734813
*RES
1 *25235:Z *25245:I 21.04 
*END

*D_NET *360 0.004413
*CONN
*I *25277:D I *D gf180mcu_fd_sc_mcu7t5v0__dffrnq_1
*I *25248:Z O *D gf180mcu_fd_sc_mcu7t5v0__dlyc_1
*CAP
1 *25277:D 0.000695715
2 *25248:Z 0.000695715
3 *25277:D *25284:D 0.000841971
4 *25277:D *25285:D 3.5621e-05
5 *25277:D *25327:I 3.08902e-05
6 *25273:D *25277:D 0.000977797
7 *25285:CLK *25277:D 0.000537602
8 *25301:D *25277:D 1.19403e-05
9 *347:16 *25277:D 0.000585746
*RES
1 *25248:Z *25277:D 17.664 
*END

*D_NET *361 0.000813627
*CONN
*I *25281:D I *D gf180mcu_fd_sc_mcu7t5v0__dffrnq_1
*I *25249:Z O *D gf180mcu_fd_sc_mcu7t5v0__dlyc_1
*CAP
1 *25281:D 0.000168612
2 *25249:Z 0.000168612
3 *25240:I *25281:D 3.00299e-05
4 *25269:RN *25281:D 0.000240774
5 *119:9 *25281:D 0.000130607
6 *328:41 *25281:D 7.49908e-05
*RES
1 *25249:Z *25281:D 10.9 
*END

*D_NET *362 0.00439864
*CONN
*I *25285:D I *D gf180mcu_fd_sc_mcu7t5v0__dffrnq_1
*I *25250:Z O *D gf180mcu_fd_sc_mcu7t5v0__dlyc_1
*CAP
1 *25285:D 0.000551349
2 *25250:Z 0.000551349
3 *25285:D *25278:I 3.80975e-05
4 *25285:D *25284:D 0.000287506
5 *25285:D *25286:I 0.000215472
6 *25285:D *25327:I 9.03836e-06
7 *25248:I *25285:D 9.27839e-05
8 *25276:RN *25285:D 0.000255714
9 *25277:D *25285:D 3.5621e-05
10 *25301:D *25285:D 0.000637319
11 *25301:RN *25285:D 0.000924773
12 *25325:D *25285:D 0.000186796
13 *85:9 *25285:D 0
14 *332:20 *25285:D 0
15 *349:18 *25285:D 0.000475038
16 *351:14 *25285:D 0.000137785
*RES
1 *25250:Z *25285:D 25.068 
*END

*D_NET *363 0.00668988
*CONN
*I *25289:D I *D gf180mcu_fd_sc_mcu7t5v0__dffrnq_1
*I *25251:Z O *D gf180mcu_fd_sc_mcu7t5v0__dlyc_1
*CAP
1 *25289:D 0.000898355
2 *25251:Z 0.000898355
3 *25289:D *25280:D 5.66946e-05
4 *25289:D *25282:I 0
5 *25289:D *25288:D 9.42276e-05
6 *25289:D *25294:I 1.44832e-05
7 *25289:D *25320:D 7.69296e-05
8 *25289:D *25322:I 5.83557e-05
9 *25289:D *25323:I 6.68164e-05
10 *25289:D *25333:D 0
11 *450:I *25289:D 0.000211917
12 *25269:CLK *25289:D 4.50449e-05
13 *25273:D *25289:D 0.00161447
14 *25273:CLK *25289:D 0.000316385
15 *25277:CLK *25289:D 0.000180163
16 *94:13 *25289:D 8.76572e-05
17 *330:55 *25289:D 8.04285e-05
18 *347:16 *25289:D 0.00190918
19 *347:18 *25289:D 8.04285e-05
*RES
1 *25251:Z *25289:D 38.552 
*END

*D_NET *364 0.00180452
*CONN
*I *25293:D I *D gf180mcu_fd_sc_mcu7t5v0__dffrnq_1
*I *25252:Z O *D gf180mcu_fd_sc_mcu7t5v0__dlyc_1
*CAP
1 *25293:D 0.000557688
2 *25252:Z 0.000557688
3 *25293:D *25312:D 0
4 *25293:D *25314:I 0.000611253
5 *25293:CLK *25293:D 7.789e-05
6 *25335:RN *25293:D 0
*RES
1 *25252:Z *25293:D 22.256 
*END

*D_NET *365 0.0029722
*CONN
*I *25297:D I *D gf180mcu_fd_sc_mcu7t5v0__dffrnq_1
*I *25253:Z O *D gf180mcu_fd_sc_mcu7t5v0__dlyc_1
*CAP
1 *25297:D 0.000695615
2 *25253:Z 0.000695615
3 *25297:D *25264:D 0.000707833
4 *25297:D *25298:I 2.61189e-05
5 *25297:D *25299:I 0.000179742
6 *25297:D *25311:I 9.60518e-06
7 *25297:D *25316:D 0.000441063
8 *440:I *25297:D 2.79106e-05
9 *25265:CLK *25297:D 0.000126613
10 *332:71 *25297:D 1.02578e-05
11 *356:10 *25297:D 5.18232e-05
*RES
1 *25253:Z *25297:D 24.916 
*END

*D_NET *366 0.0030092
*CONN
*I *25267:I I *D gf180mcu_fd_sc_mcu7t5v0__dlyc_1
*I *25265:Q O *D gf180mcu_fd_sc_mcu7t5v0__dffrnq_1
*CAP
1 *25267:I 0.00106475
2 *25265:Q 0.00106475
3 *25267:I *25296:D 3.56172e-05
4 *25267:I *25319:I 0.000803732
5 *457:I *25267:I 4.03461e-05
6 *25253:I *25267:I 0
*RES
1 *25265:Q *25267:I 14.32 
*END

*D_NET *368 0.00496464
*CONN
*I *25264:D I *D gf180mcu_fd_sc_mcu7t5v0__dffrnq_1
*I *25267:Z O *D gf180mcu_fd_sc_mcu7t5v0__dlyc_1
*CAP
1 *25264:D 0.000942287
2 *25267:Z 0.000942287
3 *25264:D *25298:I 2.59005e-05
4 *25264:D *25311:I 0
5 *25264:D *25316:D 0.00191141
6 *440:I *25264:D 7.98116e-05
7 *25225:I *25264:D 0
8 *25265:D *25264:D 0.000120769
9 *25297:D *25264:D 0.000707833
10 *25317:D *25264:D 0.000214544
11 *332:71 *25264:D 3.84145e-06
12 *350:16 *25264:D 1.5961e-05
*RES
1 *25267:Z *25264:D 28.564 
*END

*D_NET *369 0.00197937
*CONN
*I *25271:I I *D gf180mcu_fd_sc_mcu7t5v0__dlyc_1
*I *25269:Q O *D gf180mcu_fd_sc_mcu7t5v0__dffrnq_1
*CAP
1 *25271:I 0.000419176
2 *25269:Q 0.000419176
3 *25271:I *25272:D 0.000251554
4 *25271:I *25274:I 0.000142809
5 *453:I *25271:I 0
6 *328:41 *25271:I 0.000376901
7 *347:16 *25271:I 0
8 *348:22 *25271:I 0.000369754
*RES
1 *25269:Q *25271:I 22.256 
*END

*D_NET *371 0.00444403
*CONN
*I *25268:D I *D gf180mcu_fd_sc_mcu7t5v0__dffrnq_1
*I *25271:Z O *D gf180mcu_fd_sc_mcu7t5v0__dlyc_1
*CAP
1 *25268:D 0.00131463
2 *25271:Z 0.00131463
3 *25268:D *25270:I 0.00141857
4 *25268:D *25272:D 9.53577e-05
5 *25240:I *25268:D 0
6 *25251:I *25268:D 0
7 *89:13 *25268:D 0
8 *346:18 *25268:D 0
9 *348:22 *25268:D 0.000300836
*RES
1 *25271:Z *25268:D 29.248 
*END

*D_NET *372 0.00533403
*CONN
*I *25275:I I *D gf180mcu_fd_sc_mcu7t5v0__dlyc_1
*I *25273:Q O *D gf180mcu_fd_sc_mcu7t5v0__dffrnq_1
*CAP
1 *25275:I 0.00232091
2 *25273:Q 0.00232091
3 *25275:I *25315:I 0
4 *25275:I *25320:D 0
5 *25275:I *25328:D 0
6 *25275:I *25328:RN 0
7 *25275:I *25329:RN 0.000187734
8 *25275:I *25331:I 0
9 *25275:I *430:12 9.66501e-05
10 *25275:I *435:8 0.000214589
11 *446:I *25275:I 2.76775e-05
12 *25242:I *25275:I 9.29071e-05
13 *25273:D *25275:I 7.2647e-05
*RES
1 *25273:Q *25275:I 33.808 
*END

*D_NET *374 0.00616171
*CONN
*I *25272:D I *D gf180mcu_fd_sc_mcu7t5v0__dffrnq_1
*I *25275:Z O *D gf180mcu_fd_sc_mcu7t5v0__dlyc_1
*CAP
1 *25272:D 0.00108069
2 *25275:Z 0.00108069
3 *25272:D *25270:I 0.00101034
4 *25272:D *25274:I 0.00106006
5 *25249:I *25272:D 0
6 *25268:D *25272:D 9.53577e-05
7 *25271:I *25272:D 0.000251554
8 *25313:D *25272:D 0.000169363
9 *87:9 *25272:D 0
10 *89:13 *25272:D 0.00127043
11 *348:22 *25272:D 0.000143217
*RES
1 *25275:Z *25272:D 31.68 
*END

*D_NET *375 0.0061159
*CONN
*I *25279:I I *D gf180mcu_fd_sc_mcu7t5v0__dlyc_1
*I *25277:Q O *D gf180mcu_fd_sc_mcu7t5v0__dffrnq_1
*CAP
1 *25279:I 0.000516189
2 *25277:Q 0.000516189
3 *25279:I *25280:D 0.00133225
4 *25279:I *25287:I 0.000750654
5 *25279:I *25288:D 0.000386317
6 *25268:CLK *25279:I 0.000229665
7 *25321:RN *25279:I 0.000825561
8 *329:14 *25279:I 5.22519e-05
9 *329:25 *25279:I 0.000528961
10 *329:27 *25279:I 0.000441063
11 *329:29 *25279:I 8.55242e-05
12 *345:14 *25279:I 0.00045128
*RES
1 *25277:Q *25279:I 27.5 
*END

*D_NET *377 0.00685551
*CONN
*I *25276:D I *D gf180mcu_fd_sc_mcu7t5v0__dffrnq_1
*I *25279:Z O *D gf180mcu_fd_sc_mcu7t5v0__dlyc_1
*CAP
1 *25276:D 0.00180525
2 *25279:Z 0.00180525
3 *25276:D *25284:D 0
4 *25238:I *25276:D 0.00196661
5 *25273:D *25276:D 0
6 *25277:RN *25276:D 7.50749e-05
7 *25305:RN *25276:D 5.87561e-06
8 *85:9 *25276:D 0.000514804
9 *329:14 *25276:D 1.3758e-05
10 *346:18 *25276:D 4.33001e-05
11 *353:16 *25276:D 3.51161e-05
12 *353:24 *25276:D 0.000590479
*RES
1 *25279:Z *25276:D 40.908 
*END

*D_NET *378 0.00581543
*CONN
*I *25283:I I *D gf180mcu_fd_sc_mcu7t5v0__dlyc_1
*I *25281:Q O *D gf180mcu_fd_sc_mcu7t5v0__dffrnq_1
*CAP
1 *25283:I 0.000804011
2 *25281:Q 0.000804011
3 *25283:I *25328:D 9.58397e-05
4 *25227:I *25283:I 0.00011703
5 *25281:CLK *25283:I 0
6 *25313:D *25283:I 7.59646e-05
7 *25321:D *25283:I 0.000199786
8 *25333:RN *25283:I 0.000177902
9 *87:9 *25283:I 0.000235963
10 *121:9 *25283:I 0.00134763
11 *330:43 *25283:I 0.00130889
12 *330:49 *25283:I 0.000500461
13 *346:39 *25283:I 0.000147941
*RES
1 *25281:Q *25283:I 28.792 
*END

*D_NET *380 0.00542083
*CONN
*I *25280:D I *D gf180mcu_fd_sc_mcu7t5v0__dffrnq_1
*I *25283:Z O *D gf180mcu_fd_sc_mcu7t5v0__dlyc_1
*CAP
1 *25280:D 0.000977843
2 *25283:Z 0.000977843
3 *25280:D *25287:I 0.000441063
4 *25280:D *25322:I 7.03198e-05
5 *25280:D *25333:D 0.000354473
6 *25273:D *25280:D 7.62716e-05
7 *25277:CLK *25280:D 0.000197178
8 *25279:I *25280:D 0.00133225
9 *25289:D *25280:D 5.66946e-05
10 *25313:RN *25280:D 3.78032e-05
11 *25321:RN *25280:D 0.000415357
12 *25333:CLK *25280:D 0.000365825
13 *330:19 *25280:D 0.000117908
*RES
1 *25283:Z *25280:D 28.868 
*END

*D_NET *381 0.00459336
*CONN
*I *25287:I I *D gf180mcu_fd_sc_mcu7t5v0__dlyc_1
*I *25285:Q O *D gf180mcu_fd_sc_mcu7t5v0__dffrnq_1
*CAP
1 *25287:I 0.000822957
2 *25285:Q 0.000822957
3 *25268:CLK *25287:I 0.000156311
4 *25272:CLK *25287:I 0.000343939
5 *25279:I *25287:I 0.000750654
6 *25280:D *25287:I 0.000441063
7 *25288:RN *25287:I 0.000108802
8 *25289:RN *25287:I 0.00111049
9 *353:24 *25287:I 3.61829e-05
*RES
1 *25285:Q *25287:I 17.816 
*END

*D_NET *383 0.00774294
*CONN
*I *25284:D I *D gf180mcu_fd_sc_mcu7t5v0__dffrnq_1
*I *25287:Z O *D gf180mcu_fd_sc_mcu7t5v0__dlyc_1
*CAP
1 *25284:D 0.0010368
2 *25287:Z 0.0010368
3 *25248:I *25284:D 0.00010298
4 *25268:RN *25284:D 0.000140194
5 *25272:RN *25284:D 1.15275e-05
6 *25273:RN *25284:D 0.000997257
7 *25276:D *25284:D 0
8 *25277:D *25284:D 0.000841971
9 *25284:RN *25284:D 0.000197186
10 *25285:D *25284:D 0.000287506
11 *25285:CLK *25284:D 0.00121931
12 *25288:CLK *25284:D 0.000134293
13 *25301:RN *25284:D 0.000375344
14 *85:9 *25284:D 0
15 *94:13 *25284:D 0.000796585
16 *347:16 *25284:D 3.97565e-05
17 *348:22 *25284:D 0.000355015
18 *348:24 *25284:D 2.17922e-05
19 *349:18 *25284:D 0.000148635
*RES
1 *25287:Z *25284:D 32.136 
*END

*D_NET *384 0.00422803
*CONN
*I *25291:I I *D gf180mcu_fd_sc_mcu7t5v0__dlyc_1
*I *25289:Q O *D gf180mcu_fd_sc_mcu7t5v0__dffrnq_1
*CAP
1 *25291:I 0.000619144
2 *25289:Q 0.000619144
3 *25291:I *25292:D 1.3758e-05
4 *25291:I *25295:I 1.3758e-05
5 *25291:I *25304:D 0.000465362
6 *25291:I *25307:I 0.00177725
7 *25312:CLK *25291:I 0.000448201
8 *329:40 *25291:I 3.80427e-05
9 *329:44 *25291:I 0.000233375
*RES
1 *25289:Q *25291:I 24.916 
*END

*D_NET *386 0.00773341
*CONN
*I *25288:D I *D gf180mcu_fd_sc_mcu7t5v0__dffrnq_1
*I *25291:Z O *D gf180mcu_fd_sc_mcu7t5v0__dlyc_1
*CAP
1 *25288:D 0.00167055
2 *25291:Z 0.00167055
3 *25273:RN *25288:D 0.000679603
4 *25279:I *25288:D 0.000386317
5 *25289:D *25288:D 9.42276e-05
6 *25293:CLK *25288:D 0
7 *25304:RN *25288:D 0.000784692
8 *25305:D *25288:D 0.00155991
9 *94:13 *25288:D 0.000196859
10 *347:28 *25288:D 5.40596e-05
11 *348:22 *25288:D 8.17043e-05
12 *348:24 *25288:D 0.00055495
*RES
1 *25291:Z *25288:D 24.352 
*END

*D_NET *387 0.00331382
*CONN
*I *25295:I I *D gf180mcu_fd_sc_mcu7t5v0__dlyc_1
*I *25293:Q O *D gf180mcu_fd_sc_mcu7t5v0__dffrnq_1
*CAP
1 *25295:I 0.000926432
2 *25293:Q 0.000926432
3 *25295:I *25292:D 0.000288559
4 *25295:I *25304:D 0.00094418
5 *442:I *25295:I 0.000214458
6 *25291:I *25295:I 1.3758e-05
*RES
1 *25293:Q *25295:I 26.132 
*END

*D_NET *389 0.00368985
*CONN
*I *25292:D I *D gf180mcu_fd_sc_mcu7t5v0__dffrnq_1
*I *25295:Z O *D gf180mcu_fd_sc_mcu7t5v0__dlyc_1
*CAP
1 *25292:D 0.00081411
2 *25295:Z 0.00081411
3 *25292:D *25304:D 0.000208342
4 *442:I *25292:D 0.000255722
5 *25238:I *25292:D 0.000202179
6 *25291:I *25292:D 1.3758e-05
7 *25293:RN *25292:D 0.000785104
8 *25295:I *25292:D 0.000288559
9 *25305:RN *25292:D 0.000307966
*RES
1 *25295:Z *25292:D 17.74 
*END

*D_NET *390 0.00285394
*CONN
*I *25299:I I *D gf180mcu_fd_sc_mcu7t5v0__dlyc_1
*I *25297:Q O *D gf180mcu_fd_sc_mcu7t5v0__dffrnq_1
*CAP
1 *25299:I 0.000780899
2 *25297:Q 0.000780899
3 *25299:I *25296:D 0.000673025
4 *25299:I *25311:I 2.6126e-05
5 *25299:I *25319:I 0.000201937
6 *25297:D *25299:I 0.000179742
7 *356:10 *25299:I 0.000211315
*RES
1 *25297:Q *25299:I 25.068 
*END

*D_NET *392 0.00431369
*CONN
*I *25296:D I *D gf180mcu_fd_sc_mcu7t5v0__dffrnq_1
*I *25299:Z O *D gf180mcu_fd_sc_mcu7t5v0__dlyc_1
*CAP
1 *25296:D 0.000457076
2 *25299:Z 0.000457076
3 *25296:D *25308:D 0.00216018
4 *25296:D *25319:I 0.000192859
5 *25253:I *25296:D 0.000180346
6 *25264:CLK *25296:D 0.000126613
7 *25267:I *25296:D 3.56172e-05
8 *25299:I *25296:D 0.000673025
9 *331:79 *25296:D 3.08902e-05
*RES
1 *25299:Z *25296:D 16.22 
*END

*D_NET *393 0.00360451
*CONN
*I *25303:I I *D gf180mcu_fd_sc_mcu7t5v0__dlyc_1
*I *25301:Q O *D gf180mcu_fd_sc_mcu7t5v0__dffrnq_1
*CAP
1 *25303:I 0.000236483
2 *25301:Q 0.000236483
3 *25303:I *25274:I 0.001395
4 *25269:D *25303:I 5.71282e-05
5 *25269:CLK *25303:I 0.000360235
6 *25273:D *25303:I 0.000642863
7 *84:15 *25303:I 0.000101049
8 *89:13 *25303:I 0.000371757
9 *347:16 *25303:I 0.000203508
*RES
1 *25301:Q *25303:I 23.548 
*END

*D_NET *395 0.00708383
*CONN
*I *25300:D I *D gf180mcu_fd_sc_mcu7t5v0__dffrnq_1
*I *25303:Z O *D gf180mcu_fd_sc_mcu7t5v0__dlyc_1
*CAP
1 *25300:D 0.00113303
2 *25303:Z 0.00113303
3 *25225:I *25300:D 0.000560186
4 *25301:D *25300:D 0.00166567
5 *25325:D *25300:D 1.20079e-05
6 *84:15 *25300:D 0.000526789
7 *88:9 *25300:D 0.000443138
8 *89:13 *25300:D 2.96621e-05
9 *116:9 *25300:D 0
10 *331:10 *25300:D 2.67619e-05
11 *342:22 *25300:D 0.000529634
12 *343:10 *25300:D 8.04285e-05
13 *351:12 *25300:D 0.000943486
*RES
1 *25303:Z *25300:D 31.528 
*END

*D_NET *396 0.00504458
*CONN
*I *25307:I I *D gf180mcu_fd_sc_mcu7t5v0__dlyc_1
*I *25305:Q O *D gf180mcu_fd_sc_mcu7t5v0__dffrnq_1
*CAP
1 *25307:I 0.00157736
2 *25305:Q 0.00157736
3 *25307:I *25304:D 2.23477e-05
4 *25291:I *25307:I 0.00177725
5 *25305:D *25307:I 9.026e-05
*RES
1 *25305:Q *25307:I 27.652 
*END

*D_NET *398 0.00770719
*CONN
*I *25304:D I *D gf180mcu_fd_sc_mcu7t5v0__dffrnq_1
*I *25307:Z O *D gf180mcu_fd_sc_mcu7t5v0__dlyc_1
*CAP
1 *25304:D 0.00114379
2 *25307:Z 0.00114379
3 *25289:RN *25304:D 0.000468948
4 *25291:I *25304:D 0.000465362
5 *25292:D *25304:D 0.000208342
6 *25295:I *25304:D 0.00094418
7 *25305:RN *25304:D 0.000142704
8 *25307:I *25304:D 2.23477e-05
9 *25312:CLK *25304:D 0.000268896
10 *329:38 *25304:D 0.00128282
11 *329:40 *25304:D 0.000774299
12 *329:44 *25304:D 0.000841699
*RES
1 *25307:Z *25304:D 22.908 
*END

*D_NET *399 0.00504576
*CONN
*I *25311:I I *D gf180mcu_fd_sc_mcu7t5v0__dlyc_1
*I *25309:Q O *D gf180mcu_fd_sc_mcu7t5v0__dffrnq_1
*CAP
1 *25311:I 0.00176203
2 *25309:Q 0.00176203
3 *25311:I *25316:D 1.45415e-05
4 *25264:D *25311:I 0
5 *25265:D *25311:I 0.000109753
6 *25296:RN *25311:I 2.98535e-05
7 *25297:D *25311:I 9.60518e-06
8 *25299:I *25311:I 2.6126e-05
9 *25301:RN *25311:I 0.000474074
10 *25308:RN *25311:I 2.3995e-06
11 *25309:D *25311:I 1.15312e-05
12 *25316:RN *25311:I 3.83626e-06
13 *25317:D *25311:I 5.29084e-05
14 *122:7 *25311:I 0.000223812
15 *332:18 *25311:I 0
16 *332:62 *25311:I 0
17 *353:16 *25311:I 0.000333372
18 *354:21 *25311:I 0.000229879
*RES
1 *25309:Q *25311:I 30.92 
*END

*D_NET *401 0.00552306
*CONN
*I *25308:D I *D gf180mcu_fd_sc_mcu7t5v0__dffrnq_1
*I *25311:Z O *D gf180mcu_fd_sc_mcu7t5v0__dlyc_1
*CAP
1 *25308:D 0.000243944
2 *25311:Z 0.000243944
3 *25253:I *25308:D 0.000271334
4 *25296:D *25308:D 0.00216018
5 *25317:RN *25308:D 0.00164894
6 *331:59 *25308:D 8.82876e-06
7 *331:70 *25308:D 0.00015588
8 *331:79 *25308:D 0.000163601
9 *356:14 *25308:D 0.000626404
*RES
1 *25311:Z *25308:D 16.676 
*END

*D_NET *402 0.00506573
*CONN
*I *25315:I I *D gf180mcu_fd_sc_mcu7t5v0__dlyc_1
*I *25313:Q O *D gf180mcu_fd_sc_mcu7t5v0__dffrnq_1
*CAP
1 *25315:I 0.00151292
2 *25313:Q 0.00151292
3 *25315:I *25323:I 0.000443021
4 *25315:I *25338:I 8.81341e-06
5 *25252:I *25315:I 0.000196402
6 *25275:I *25315:I 0
7 *25329:D *25315:I 8.1437e-05
8 *25329:CLK *25315:I 0
9 *25335:RN *25315:I 6.07121e-05
10 *330:43 *25315:I 0.000694395
11 *330:49 *25315:I 0.000555104
*RES
1 *25313:Q *25315:I 29.552 
*END

*D_NET *404 0.00164345
*CONN
*I *25312:D I *D gf180mcu_fd_sc_mcu7t5v0__dffrnq_1
*I *25315:Z O *D gf180mcu_fd_sc_mcu7t5v0__dlyc_1
*CAP
1 *25312:D 0.000722745
2 *25315:Z 0.000722745
3 *25312:D *25314:I 0.000197957
4 *25293:D *25312:D 0
5 *25335:CLK *25312:D 0
*RES
1 *25315:Z *25312:D 23.092 
*END

*D_NET *405 0.00250381
*CONN
*I *25319:I I *D gf180mcu_fd_sc_mcu7t5v0__dlyc_1
*I *25317:Q O *D gf180mcu_fd_sc_mcu7t5v0__dffrnq_1
*CAP
1 *25319:I 0.000652643
2 *25317:Q 0.000652643
3 *25267:I *25319:I 0.000803732
4 *25296:D *25319:I 0.000192859
5 *25299:I *25319:I 0.000201937
*RES
1 *25317:Q *25319:I 23.396 
*END

*D_NET *407 0.00709957
*CONN
*I *25316:D I *D gf180mcu_fd_sc_mcu7t5v0__dffrnq_1
*I *25319:Z O *D gf180mcu_fd_sc_mcu7t5v0__dlyc_1
*CAP
1 *25316:D 0.000629686
2 *25319:Z 0.000629686
3 *25236:I *25316:D 0.00036132
4 *25264:D *25316:D 0.00191141
5 *25265:D *25316:D 0.000478423
6 *25296:RN *25316:D 5.48085e-05
7 *25297:D *25316:D 0.000441063
8 *25311:I *25316:D 1.45415e-05
9 *120:9 *25316:D 0.00127308
10 *332:62 *25316:D 0.0012363
11 *332:71 *25316:D 6.92468e-05
12 *356:10 *25316:D 0
*RES
1 *25319:Z *25316:D 38.02 
*END

*D_NET *408 0.0055944
*CONN
*I *25323:I I *D gf180mcu_fd_sc_mcu7t5v0__dlyc_1
*I *25321:Q O *D gf180mcu_fd_sc_mcu7t5v0__dffrnq_1
*CAP
1 *25323:I 0.000573041
2 *25321:Q 0.000573041
3 *25323:I *25306:I 0.00300091
4 *25323:I *25329:RN 0
5 *25323:I *430:12 0
6 *25323:I *435:8 0
7 *25273:D *25323:I 0.000239048
8 *25289:D *25323:I 6.68164e-05
9 *25315:I *25323:I 0.000443021
10 *25333:RN *25323:I 0.00069853
*RES
1 *25321:Q *25323:I 27.576 
*END

*D_NET *410 0.00517053
*CONN
*I *25320:D I *D gf180mcu_fd_sc_mcu7t5v0__dffrnq_1
*I *25323:Z O *D gf180mcu_fd_sc_mcu7t5v0__dlyc_1
*CAP
1 *25320:D 0.00150956
2 *25323:Z 0.00150956
3 *25320:D *25294:I 0.00070767
4 *25320:D *25328:D 0.00033518
5 *25320:D *25329:RN 0.000326276
6 *25320:D *25337:I 1.44832e-05
7 *25320:D *430:12 8.02751e-06
8 *25273:D *25320:D 0
9 *25273:CLK *25320:D 0.000228597
10 *25275:I *25320:D 0
11 *25289:D *25320:D 7.69296e-05
12 *330:49 *25320:D 0.000279408
13 *330:55 *25320:D 0.000174839
*RES
1 *25323:Z *25320:D 30.92 
*END

*D_NET *411 0.00329668
*CONN
*I *25327:I I *D gf180mcu_fd_sc_mcu7t5v0__dlyc_1
*I *25325:Q O *D gf180mcu_fd_sc_mcu7t5v0__dffrnq_1
*CAP
1 *25327:I 0.000855262
2 *25325:Q 0.000855262
3 *25327:I *25286:I 7.645e-05
4 *25327:I *25324:D 8.81149e-05
5 *25327:I *25326:I 0
6 *454:I *25327:I 8.79079e-05
7 *25248:I *25327:I 0.000761544
8 *25277:D *25327:I 3.08902e-05
9 *25285:D *25327:I 9.03836e-06
10 *25285:CLK *25327:I 6.22558e-05
11 *25325:D *25327:I 0.000342528
12 *332:20 *25327:I 8.55327e-05
13 *342:22 *25327:I 4.18914e-05
*RES
1 *25325:Q *25327:I 26.588 
*END

*D_NET *413 0.00415107
*CONN
*I *25324:D I *D gf180mcu_fd_sc_mcu7t5v0__dffrnq_1
*I *25327:Z O *D gf180mcu_fd_sc_mcu7t5v0__dlyc_1
*CAP
1 *25324:D 0.000512805
2 *25327:Z 0.000512805
3 *25324:D *25278:I 0.000307966
4 *25324:D *25326:I 0.000858215
5 *454:I *25324:D 0.000700133
6 *25257:I *25324:D 1.97747e-05
7 *25325:D *25324:D 0.000103796
8 *25325:RN *25324:D 0.000158954
9 *25327:I *25324:D 8.81149e-05
10 *88:9 *25324:D 0.000576271
11 *342:22 *25324:D 0.000312235
*RES
1 *25327:Z *25324:D 27.424 
*END

*D_NET *414 0.00345592
*CONN
*I *25266:I I *D gf180mcu_fd_sc_mcu7t5v0__buf_1
*I *25264:Q O *D gf180mcu_fd_sc_mcu7t5v0__dffrnq_1
*CAP
1 *25266:I 0.00075257
2 *25264:Q 0.00075257
3 *25266:I *25298:I 0.000602589
4 *25266:I *25318:I 0.000780699
5 *25235:I *25266:I 0.000245108
6 *25245:I *25266:I 2.31627e-05
7 *25263:I *25266:I 7.57844e-05
8 *25265:D *25266:I 2.14818e-05
9 *342:12 *25266:I 0
10 *352:8 *25266:I 0.000201957
11 *356:10 *25266:I 0
*RES
1 *25264:Q *25266:I 25.068 
*END

*D_NET *415 0.00435075
*CONN
*I *25270:I I *D gf180mcu_fd_sc_mcu7t5v0__buf_1
*I *25268:Q O *D gf180mcu_fd_sc_mcu7t5v0__dffrnq_1
*CAP
1 *25270:I 0.000588203
2 *25268:Q 0.000588203
3 *25270:I *25274:I 0.000715765
4 *25240:I *25270:I 0
5 *25268:D *25270:I 0.00141857
6 *25272:D *25270:I 0.00101034
7 *348:22 *25270:I 2.96621e-05
*RES
1 *25268:Q *25270:I 27.12 
*END

*D_NET *416 0.0060321
*CONN
*I *25274:I I *D gf180mcu_fd_sc_mcu7t5v0__buf_1
*I *25272:Q O *D gf180mcu_fd_sc_mcu7t5v0__dffrnq_1
*CAP
1 *25274:I 0.000536133
2 *25272:Q 0.000536133
3 *25270:I *25274:I 0.000715765
4 *25271:I *25274:I 0.000142809
5 *25272:D *25274:I 0.00106006
6 *25303:I *25274:I 0.001395
7 *347:16 *25274:I 6.96894e-05
8 *348:6 *25274:I 0.00115212
9 *348:22 *25274:I 0.000424388
*RES
1 *25272:Q *25274:I 28.184 
*END

*D_NET *417 0.00497189
*CONN
*I *25278:I I *D gf180mcu_fd_sc_mcu7t5v0__buf_1
*I *25276:Q O *D gf180mcu_fd_sc_mcu7t5v0__dffrnq_1
*CAP
1 *25278:I 0.000710162
2 *25276:Q 0.000710162
3 *25278:I *25286:I 0
4 *439:I *25278:I 0.000389489
5 *441:I *25278:I 0.000209843
6 *454:I *25278:I 0.000204162
7 *25257:I *25278:I 0.000105032
8 *25285:D *25278:I 3.80975e-05
9 *25324:D *25278:I 0.000307966
10 *85:9 *25278:I 0.000408368
11 *328:8 *25278:I 0.001787
12 *351:12 *25278:I 0.000101612
*RES
1 *25276:Q *25278:I 27.728 
*END

*D_NET *418 0.00197507
*CONN
*I *25282:I I *D gf180mcu_fd_sc_mcu7t5v0__buf_1
*I *25280:Q O *D gf180mcu_fd_sc_mcu7t5v0__dffrnq_1
*CAP
1 *25282:I 0.000759042
2 *25280:Q 0.000759042
3 *25277:CLK *25282:I 0
4 *25289:D *25282:I 0
5 *25313:D *25282:I 0.000186796
6 *25321:D *25282:I 0.000204929
7 *119:9 *25282:I 0
8 *328:41 *25282:I 6.52605e-05
9 *330:17 *25282:I 0
10 *330:19 *25282:I 0
*RES
1 *25280:Q *25282:I 23.32 
*END

*D_NET *419 0.0027657
*CONN
*I *25286:I I *D gf180mcu_fd_sc_mcu7t5v0__buf_1
*I *25284:Q O *D gf180mcu_fd_sc_mcu7t5v0__dffrnq_1
*CAP
1 *25286:I 0.000937602
2 *25284:Q 0.000937602
3 *439:I *25286:I 0
4 *25248:I *25286:I 0.000332356
5 *25278:I *25286:I 0
6 *25285:D *25286:I 0.000215472
7 *25327:I *25286:I 7.645e-05
8 *348:6 *25286:I 0.000266216
*RES
1 *25284:Q *25286:I 25.448 
*END

*D_NET *420 0.0030076
*CONN
*I *25290:I I *D gf180mcu_fd_sc_mcu7t5v0__buf_1
*I *25288:Q O *D gf180mcu_fd_sc_mcu7t5v0__dffrnq_1
*CAP
1 *25290:I 0.00100357
2 *25288:Q 0.00100357
3 *25268:CLK *25290:I 0.000123951
4 *346:8 *25290:I 0.000259822
5 *346:18 *25290:I 0.000616689
*RES
1 *25288:Q *25290:I 24.004 
*END

*D_NET *421 0.0027447
*CONN
*I *25294:I I *D gf180mcu_fd_sc_mcu7t5v0__buf_1
*I *25292:Q O *D gf180mcu_fd_sc_mcu7t5v0__dffrnq_1
*CAP
1 *25294:I 0.000529432
2 *25292:Q 0.000529432
3 *25294:I *25314:I 9.61678e-05
4 *25294:I *25333:D 7.62777e-05
5 *25289:D *25294:I 1.44832e-05
6 *25320:D *25294:I 0.00070767
7 *330:55 *25294:I 0.000728257
8 *330:57 *25294:I 3.98171e-05
9 *330:61 *25294:I 2.31628e-05
*RES
1 *25292:Q *25294:I 22.788 
*END

*D_NET *422 0.00469021
*CONN
*I *25298:I I *D gf180mcu_fd_sc_mcu7t5v0__buf_1
*I *25296:Q O *D gf180mcu_fd_sc_mcu7t5v0__dffrnq_1
*CAP
1 *25298:I 0.000553437
2 *25296:Q 0.000553437
3 *25298:I *25318:I 0.000614039
4 *440:I *25298:I 0.000604208
5 *25264:D *25298:I 2.59005e-05
6 *25265:CLK *25298:I 0.000448201
7 *25266:I *25298:I 0.000602589
8 *25297:D *25298:I 2.61189e-05
9 *332:62 *25298:I 0.000668373
10 *332:71 *25298:I 0.000593903
*RES
1 *25296:Q *25298:I 17.208 
*END

*D_NET *423 0.00463528
*CONN
*I *25302:I I *D gf180mcu_fd_sc_mcu7t5v0__buf_1
*I *25300:Q O *D gf180mcu_fd_sc_mcu7t5v0__dffrnq_1
*CAP
1 *25302:I 0.000825822
2 *25300:Q 0.000825822
3 *25302:I *25326:I 0.000193942
4 *25228:I *25302:I 9.98178e-05
5 *25229:I *25302:I 0.000502471
6 *116:9 *25302:I 0.000121079
7 *351:12 *25302:I 0.00206633
*RES
1 *25300:Q *25302:I 27.424 
*END

*D_NET *424 0.00457526
*CONN
*I *25306:I I *D gf180mcu_fd_sc_mcu7t5v0__buf_1
*I *25304:Q O *D gf180mcu_fd_sc_mcu7t5v0__dffrnq_1
*CAP
1 *25306:I 0.00065281
2 *25304:Q 0.00065281
3 *25321:RN *25306:I 0.000127121
4 *25323:I *25306:I 0.00300091
5 *25333:RN *25306:I 0
6 *330:17 *25306:I 3.43133e-05
7 *330:19 *25306:I 0.000107303
*RES
1 *25304:Q *25306:I 26.208 
*END

*D_NET *425 0.00351485
*CONN
*I *25310:I I *D gf180mcu_fd_sc_mcu7t5v0__buf_1
*I *25308:Q O *D gf180mcu_fd_sc_mcu7t5v0__dffrnq_1
*CAP
1 *25310:I 0.000967397
2 *25308:Q 0.000967397
3 *25228:I *25310:I 0
4 *25229:I *25310:I 0
5 *25309:D *25310:I 0.000452547
6 *122:7 *25310:I 0.000333301
7 *332:18 *25310:I 0.000438681
8 *332:20 *25310:I 3.08902e-05
9 *332:62 *25310:I 0.00032464
*RES
1 *25308:Q *25310:I 26.208 
*END

*D_NET *426 0.00246166
*CONN
*I *25314:I I *D gf180mcu_fd_sc_mcu7t5v0__buf_1
*I *25312:Q O *D gf180mcu_fd_sc_mcu7t5v0__dffrnq_1
*CAP
1 *25314:I 0.000687955
2 *25312:Q 0.000687955
3 *25314:I *25333:D 6.3621e-06
4 *25293:D *25314:I 0.000611253
5 *25293:CLK *25314:I 0.000150775
6 *25294:I *25314:I 9.61678e-05
7 *25312:D *25314:I 0.000197957
8 *330:61 *25314:I 2.32388e-05
*RES
1 *25312:Q *25314:I 23.244 
*END

*D_NET *427 0.00364977
*CONN
*I *25318:I I *D gf180mcu_fd_sc_mcu7t5v0__buf_1
*I *25316:Q O *D gf180mcu_fd_sc_mcu7t5v0__dffrnq_1
*CAP
1 *25318:I 0.000722081
2 *25316:Q 0.000722081
3 *440:I *25318:I 0.000217508
4 *25265:D *25318:I 0.000134622
5 *25266:I *25318:I 0.000780699
6 *25298:I *25318:I 0.000614039
7 *327:9 *25318:I 0.000376342
8 *332:62 *25318:I 2.5305e-05
9 *342:12 *25318:I 5.70914e-05
*RES
1 *25316:Q *25318:I 16.98 
*END

*D_NET *428 0.000501193
*CONN
*I *25322:I I *D gf180mcu_fd_sc_mcu7t5v0__buf_1
*I *25320:Q O *D gf180mcu_fd_sc_mcu7t5v0__dffrnq_1
*CAP
1 *25322:I 0.000157751
2 *25320:Q 0.000157751
3 *25273:D *25322:I 5.70161e-05
4 *25280:D *25322:I 7.03198e-05
5 *25289:D *25322:I 5.83557e-05
*RES
1 *25320:Q *25322:I 10.368 
*END

*D_NET *429 0.0038304
*CONN
*I *25326:I I *D gf180mcu_fd_sc_mcu7t5v0__buf_1
*I *25324:Q O *D gf180mcu_fd_sc_mcu7t5v0__dffrnq_1
*CAP
1 *25326:I 0.000583671
2 *25324:Q 0.000583671
3 *441:I *25326:I 7.67026e-05
4 *454:I *25326:I 1.20889e-05
5 *25302:I *25326:I 0.000193942
6 *25324:D *25326:I 0.000858215
7 *25327:I *25326:I 0
8 *88:9 *25326:I 0.0013767
9 *348:6 *25326:I 0.000141897
10 *351:12 *25326:I 3.50638e-06
*RES
1 *25324:Q *25326:I 25.448 
*END

*D_NET *430 0.00239729
*CONN
*I *25332:I I *D gf180mcu_fd_sc_mcu7t5v0__dlyc_1
*I *25337:I I *D gf180mcu_fd_sc_mcu7t5v0__buf_1
*I *25333:Q O *D gf180mcu_fd_sc_mcu7t5v0__dffrnq_1
*CAP
1 *25332:I 0
2 *25337:I 0.000624764
3 *25333:Q 0.000213475
4 *430:12 0.000838239
5 *25337:I *25328:RN 0
6 *25337:I *25329:RN 0.000460831
7 *25337:I *25331:I 7.53241e-05
8 *430:12 *25329:RN 6.54978e-05
9 *25275:I *430:12 9.66501e-05
10 *25320:D *25337:I 1.44832e-05
11 *25320:D *430:12 8.02751e-06
12 *25323:I *430:12 0
13 *25333:RN *430:12 0
*RES
1 *25333:Q *430:12 15.324 
2 *430:12 *25337:I 8.68 
3 *430:12 *25332:I 4.5 
*END

*D_NET *431 0.000196821
*CONN
*I *25330:I I *D gf180mcu_fd_sc_mcu7t5v0__buf_1
*I *25328:Q O *D gf180mcu_fd_sc_mcu7t5v0__dffrnq_1
*CAP
1 *25330:I 9.84103e-05
2 *25328:Q 9.84103e-05
*RES
1 *25328:Q *25330:I 9.684 
*END

*D_NET *432 0.000822585
*CONN
*I *25331:I I *D gf180mcu_fd_sc_mcu7t5v0__dlyc_1
*I *25329:Q O *D gf180mcu_fd_sc_mcu7t5v0__dffrnq_1
*CAP
1 *25331:I 0.000373631
2 *25329:Q 0.000373631
3 *25275:I *25331:I 0
4 *25337:I *25331:I 7.53241e-05
*RES
1 *25329:Q *25331:I 20.432 
*END

*D_NET *434 0.000885128
*CONN
*I *25328:D I *D gf180mcu_fd_sc_mcu7t5v0__dffrnq_1
*I *25331:Z O *D gf180mcu_fd_sc_mcu7t5v0__dlyc_1
*CAP
1 *25328:D 0.000227054
2 *25331:Z 0.000227054
3 *25275:I *25328:D 0
4 *25283:I *25328:D 9.58397e-05
5 *25320:D *25328:D 0.00033518
*RES
1 *25331:Z *25328:D 20.432 
*END

*D_NET *435 0.00266222
*CONN
*I *25328:RN I *D gf180mcu_fd_sc_mcu7t5v0__dffrnq_1
*I *25329:RN I *D gf180mcu_fd_sc_mcu7t5v0__dffrnq_1
*I *25332:Z O *D gf180mcu_fd_sc_mcu7t5v0__dlyc_1
*CAP
1 *25328:RN 0.000121117
2 *25329:RN 0.000329871
3 *25332:Z 0.000252658
4 *435:8 0.000703645
5 *25275:I *25328:RN 0
6 *25275:I *25329:RN 0.000187734
7 *25275:I *435:8 0.000214589
8 *25320:D *25329:RN 0.000326276
9 *25323:I *25329:RN 0
10 *25323:I *435:8 0
11 *25337:I *25328:RN 0
12 *25337:I *25329:RN 0.000460831
13 *430:12 *25329:RN 6.54978e-05
*RES
1 *25332:Z *435:8 11.356 
2 *435:8 *25329:RN 13.104 
3 *435:8 *25328:RN 9.532 
*END

*D_NET *436 0.00194148
*CONN
*I *25338:I I *D gf180mcu_fd_sc_mcu7t5v0__dlyc_1
*I *25335:Q O *D gf180mcu_fd_sc_mcu7t5v0__dffrnq_1
*CAP
1 *25338:I 0.000654708
2 *25335:Q 0.000654708
3 *25252:I *25338:I 0.000439272
4 *25315:I *25338:I 8.81341e-06
5 *25329:D *25338:I 0.000147775
6 *25335:RN *25338:I 3.62081e-05
*RES
1 *25335:Q *25338:I 22.18 
*END

*D_NET *438 0.00190233
*CONN
*I *25333:D I *D gf180mcu_fd_sc_mcu7t5v0__dffrnq_1
*I *25338:Z O *D gf180mcu_fd_sc_mcu7t5v0__dlyc_1
*CAP
1 *25333:D 0.000725674
2 *25338:Z 0.000725674
3 *25280:D *25333:D 0.000354473
4 *25289:D *25333:D 0
5 *25294:I *25333:D 7.62777e-05
6 *25313:RN *25333:D 0
7 *25314:I *25333:D 6.3621e-06
8 *25329:CLK *25333:D 1.38661e-05
*RES
1 *25338:Z *25333:D 13.712 
*END
